592
Lattice="22.65349397 0.00000000 0.00000000 0.00000000 9.49026554 0.00000000 0.00000000 0.00000000 30.75572707" Properties=species:S:1:pos:R:3 pbc="T T T" polyfind_label="antipolar all-trans 11VDF:1VDCN" energy_per_monomer_kcal_mol=-3.751360 density_g_cm3=1.572009 min_interchain_distance_A=2.5243
C       -0.00000221       0.52465800       0.00000000
H       -0.88183343       1.16534021       0.00000000
H        0.88182362       1.16534763       0.00000000
C        0.00000130      -0.30755045       1.28148863
F        1.07816266      -1.11999619       1.28148863
F       -1.07815322      -1.12000527       1.28148863
C       -0.00000221       0.52465800       2.56297726
H       -0.88183343       1.16534021       2.56297726
H        0.88182362       1.16534763       2.56297726
C        0.00000130      -0.30755045       3.84446588
F        1.07816266      -1.11999619       3.84446588
F       -1.07815322      -1.12000527       3.84446588
C       -0.00000221       0.52465800       5.12595451
H       -0.88183343       1.16534021       5.12595451
H        0.88182362       1.16534763       5.12595451
C        0.00000130      -0.30755045       6.40744314
F        1.07816266      -1.11999619       6.40744314
F       -1.07815322      -1.12000527       6.40744314
C       -0.00000221       0.52465800       7.68893177
H       -0.88183343       1.16534021       7.68893177
H        0.88182362       1.16534763       7.68893177
C        0.00000130      -0.30755045       8.97042039
F        1.07816266      -1.11999619       8.97042039
F       -1.07815322      -1.12000527       8.97042039
C       -0.00000221       0.52465800      10.25190902
H       -0.88183343       1.16534021      10.25190902
H        0.88182362       1.16534763      10.25190902
C        0.00000130      -0.30755045      11.53339765
F        1.07816266      -1.11999619      11.53339765
F       -1.07815322      -1.12000527      11.53339765
C       -0.00000221       0.52465800      12.81488628
H       -0.88183343       1.16534021      12.81488628
H        0.88182362       1.16534763      12.81488628
C        0.00000130      -0.30755045      14.09637491
F        1.07816266      -1.11999619      14.09637491
F       -1.07815322      -1.12000527      14.09637491
C       -0.00000221       0.52465800      15.37786353
H       -0.88183343       1.16534021      15.37786353
H        0.88182362       1.16534763      15.37786353
C        0.00000130      -0.30755045      16.65935216
C        1.20415835      -1.15070274      16.65935216
N        2.15437752      -1.81604740      16.65935216
C       -1.20414866      -1.15071288      16.65935216
N       -2.15436223      -1.81606555      16.65935216
C       -0.00000221       0.52465800      17.94084079
H       -0.88183343       1.16534021      17.94084079
H        0.88182362       1.16534763      17.94084079
C        0.00000130      -0.30755045      19.22232942
F        1.07816266      -1.11999619      19.22232942
F       -1.07815322      -1.12000527      19.22232942
C       -0.00000221       0.52465800      20.50381805
H       -0.88183343       1.16534021      20.50381805
H        0.88182362       1.16534763      20.50381805
C        0.00000130      -0.30755045      21.78530667
F        1.07816266      -1.11999619      21.78530667
F       -1.07815322      -1.12000527      21.78530667
C       -0.00000221       0.52465800      23.06679530
H       -0.88183343       1.16534021      23.06679530
H        0.88182362       1.16534763      23.06679530
C        0.00000130      -0.30755045      24.34828393
F        1.07816266      -1.11999619      24.34828393
F       -1.07815322      -1.12000527      24.34828393
C       -0.00000221       0.52465800      25.62977256
H       -0.88183343       1.16534021      25.62977256
H        0.88182362       1.16534763      25.62977256
C        0.00000130      -0.30755045      26.91126118
F        1.07816266      -1.11999619      26.91126118
F       -1.07815322      -1.12000527      26.91126118
C       -0.00000221       0.52465800      28.19274981
H       -0.88183343       1.16534021      28.19274981
H        0.88182362       1.16534763      28.19274981
C        0.00000130      -0.30755045      29.47423844
F        1.07816266      -1.11999619      29.47423844
F       -1.07815322      -1.12000527      29.47423844
C        5.66337570       1.84790839       3.81182917
H        6.54520692       1.20722618       3.81182917
H        4.78154988       1.20721875       3.81182917
C        5.66337220       2.68011683       5.09331780
F        4.58521084       3.49256257       5.09331780
F        6.74152671       3.49257166       5.09331780
C        5.66337570       1.84790839       6.37480643
H        6.54520692       1.20722618       6.37480643
H        4.78154988       1.20721875       6.37480643
C        5.66337220       2.68011683       7.65629506
F        4.58521084       3.49256257       7.65629506
F        6.74152671       3.49257166       7.65629506
C        5.66337570       1.84790839       8.93778368
H        6.54520692       1.20722618       8.93778368
H        4.78154988       1.20721875       8.93778368
C        5.66337220       2.68011683      10.21927231
F        4.58521084       3.49256257      10.21927231
F        6.74152671       3.49257166      10.21927231
C        5.66337570       1.84790839      11.50076094
H        6.54520692       1.20722618      11.50076094
H        4.78154988       1.20721875      11.50076094
C        5.66337220       2.68011683      12.78224957
F        4.58521084       3.49256257      12.78224957
F        6.74152671       3.49257166      12.78224957
C        5.66337570       1.84790839      14.06373820
H        6.54520692       1.20722618      14.06373820
H        4.78154988       1.20721875      14.06373820
C        5.66337220       2.68011683      15.34522682
F        4.58521084       3.49256257      15.34522682
F        6.74152671       3.49257166      15.34522682
C        5.66337570       1.84790839      16.62671545
H        6.54520692       1.20722618      16.62671545
H        4.78154988       1.20721875      16.62671545
C        5.66337220       2.68011683      17.90820408
F        4.58521084       3.49256257      17.90820408
F        6.74152671       3.49257166      17.90820408
C        5.66337570       1.84790839      19.18969271
H        6.54520692       1.20722618      19.18969271
H        4.78154988       1.20721875      19.18969271
C        5.66337220       2.68011683      20.47118134
C        4.45921514       3.52326912      20.47118134
N        3.50899597       4.18861379      20.47118134
C        6.86752215       3.52327927      20.47118134
N        7.81773572       4.18863193      20.47118134
C        5.66337570       1.84790839      21.75266996
H        6.54520692       1.20722618      21.75266996
H        4.78154988       1.20721875      21.75266996
C        5.66337220       2.68011683      23.03415859
F        4.58521084       3.49256257      23.03415859
F        6.74152671       3.49257166      23.03415859
C        5.66337570       1.84790839      24.31564722
H        6.54520692       1.20722618      24.31564722
H        4.78154988       1.20721875      24.31564722
C        5.66337220       2.68011683      25.59713585
F        4.58521084       3.49256257      25.59713585
F        6.74152671       3.49257166      25.59713585
C        5.66337570       1.84790839      26.87862447
H        6.54520692       1.20722618      26.87862447
H        4.78154988       1.20721875      26.87862447
C        5.66337220       2.68011683      28.16011310
F        4.58521084       3.49256257      28.16011310
F        6.74152671       3.49257166      28.16011310
C        5.66337570       1.84790839      29.44160173
H        6.54520692       1.20722618      29.44160173
H        4.78154988       1.20721875      29.44160173
C        5.66337220       2.68011683      30.72309036
F        4.58521084       3.49256257      30.72309036
F        6.74152671       3.49257166      30.72309036
C        5.66337570       1.84790839      32.00457899
H        6.54520692       1.20722618      32.00457899
H        4.78154988       1.20721875      32.00457899
C        5.66337220       2.68011683      33.28606761
F        4.58521084       3.49256257      33.28606761
F        6.74152671       3.49257166      33.28606761
C       -0.00000221       5.26979076       0.00000000
H       -0.88183343       5.91047298       0.00000000
H        0.88182362       5.91048040       0.00000000
C        0.00000130       4.43758232       1.28148863
F        1.07816266       3.62513658       1.28148863
F       -1.07815322       3.62512750       1.28148863
C       -0.00000221       5.26979076       2.56297726
H       -0.88183343       5.91047298       2.56297726
H        0.88182362       5.91048040       2.56297726
C        0.00000130       4.43758232       3.84446588
F        1.07816266       3.62513658       3.84446588
F       -1.07815322       3.62512750       3.84446588
C       -0.00000221       5.26979076       5.12595451
H       -0.88183343       5.91047298       5.12595451
H        0.88182362       5.91048040       5.12595451
C        0.00000130       4.43758232       6.40744314
F        1.07816266       3.62513658       6.40744314
F       -1.07815322       3.62512750       6.40744314
C       -0.00000221       5.26979076       7.68893177
H       -0.88183343       5.91047298       7.68893177
H        0.88182362       5.91048040       7.68893177
C        0.00000130       4.43758232       8.97042039
F        1.07816266       3.62513658       8.97042039
F       -1.07815322       3.62512750       8.97042039
C       -0.00000221       5.26979076      10.25190902
H       -0.88183343       5.91047298      10.25190902
H        0.88182362       5.91048040      10.25190902
C        0.00000130       4.43758232      11.53339765
F        1.07816266       3.62513658      11.53339765
F       -1.07815322       3.62512750      11.53339765
C       -0.00000221       5.26979076      12.81488628
H       -0.88183343       5.91047298      12.81488628
H        0.88182362       5.91048040      12.81488628
C        0.00000130       4.43758232      14.09637491
F        1.07816266       3.62513658      14.09637491
F       -1.07815322       3.62512750      14.09637491
C       -0.00000221       5.26979076      15.37786353
H       -0.88183343       5.91047298      15.37786353
H        0.88182362       5.91048040      15.37786353
C        0.00000130       4.43758232      16.65935216
C        1.20415835       3.59443003      16.65935216
N        2.15437752       2.92908536      16.65935216
C       -1.20414866       3.59441989      16.65935216
N       -2.15436223       2.92906722      16.65935216
C       -0.00000221       5.26979076      17.94084079
H       -0.88183343       5.91047298      17.94084079
H        0.88182362       5.91048040      17.94084079
C        0.00000130       4.43758232      19.22232942
F        1.07816266       3.62513658      19.22232942
F       -1.07815322       3.62512750      19.22232942
C       -0.00000221       5.26979076      20.50381805
H       -0.88183343       5.91047298      20.50381805
H        0.88182362       5.91048040      20.50381805
C        0.00000130       4.43758232      21.78530667
F        1.07816266       3.62513658      21.78530667
F       -1.07815322       3.62512750      21.78530667
C       -0.00000221       5.26979076      23.06679530
H       -0.88183343       5.91047298      23.06679530
H        0.88182362       5.91048040      23.06679530
C        0.00000130       4.43758232      24.34828393
F        1.07816266       3.62513658      24.34828393
F       -1.07815322       3.62512750      24.34828393
C       -0.00000221       5.26979076      25.62977256
H       -0.88183343       5.91047298      25.62977256
H        0.88182362       5.91048040      25.62977256
C        0.00000130       4.43758232      26.91126118
F        1.07816266       3.62513658      26.91126118
F       -1.07815322       3.62512750      26.91126118
C       -0.00000221       5.26979076      28.19274981
H       -0.88183343       5.91047298      28.19274981
H        0.88182362       5.91048040      28.19274981
C        0.00000130       4.43758232      29.47423844
F        1.07816266       3.62513658      29.47423844
F       -1.07815322       3.62512750      29.47423844
C        5.66337570       6.59304116       3.81182917
H        6.54520692       5.95235895       3.81182917
H        4.78154988       5.95235152       3.81182917
C        5.66337220       7.42524960       5.09331780
F        4.58521084       8.23769534       5.09331780
F        6.74152671       8.23770442       5.09331780
C        5.66337570       6.59304116       6.37480643
H        6.54520692       5.95235895       6.37480643
H        4.78154988       5.95235152       6.37480643
C        5.66337220       7.42524960       7.65629506
F        4.58521084       8.23769534       7.65629506
F        6.74152671       8.23770442       7.65629506
C        5.66337570       6.59304116       8.93778368
H        6.54520692       5.95235895       8.93778368
H        4.78154988       5.95235152       8.93778368
C        5.66337220       7.42524960      10.21927231
F        4.58521084       8.23769534      10.21927231
F        6.74152671       8.23770442      10.21927231
C        5.66337570       6.59304116      11.50076094
H        6.54520692       5.95235895      11.50076094
H        4.78154988       5.95235152      11.50076094
C        5.66337220       7.42524960      12.78224957
F        4.58521084       8.23769534      12.78224957
F        6.74152671       8.23770442      12.78224957
C        5.66337570       6.59304116      14.06373820
H        6.54520692       5.95235895      14.06373820
H        4.78154988       5.95235152      14.06373820
C        5.66337220       7.42524960      15.34522682
F        4.58521084       8.23769534      15.34522682
F        6.74152671       8.23770442      15.34522682
C        5.66337570       6.59304116      16.62671545
H        6.54520692       5.95235895      16.62671545
H        4.78154988       5.95235152      16.62671545
C        5.66337220       7.42524960      17.90820408
F        4.58521084       8.23769534      17.90820408
F        6.74152671       8.23770442      17.90820408
C        5.66337570       6.59304116      19.18969271
H        6.54520692       5.95235895      19.18969271
H        4.78154988       5.95235152      19.18969271
C        5.66337220       7.42524960      20.47118134
C        4.45921514       8.26840189      20.47118134
N        3.50899597       8.93374656      20.47118134
C        6.86752215       8.26841204      20.47118134
N        7.81773572       8.93376470      20.47118134
C        5.66337570       6.59304116      21.75266996
H        6.54520692       5.95235895      21.75266996
H        4.78154988       5.95235152      21.75266996
C        5.66337220       7.42524960      23.03415859
F        4.58521084       8.23769534      23.03415859
F        6.74152671       8.23770442      23.03415859
C        5.66337570       6.59304116      24.31564722
H        6.54520692       5.95235895      24.31564722
H        4.78154988       5.95235152      24.31564722
C        5.66337220       7.42524960      25.59713585
F        4.58521084       8.23769534      25.59713585
F        6.74152671       8.23770442      25.59713585
C        5.66337570       6.59304116      26.87862447
H        6.54520692       5.95235895      26.87862447
H        4.78154988       5.95235152      26.87862447
C        5.66337220       7.42524960      28.16011310
F        4.58521084       8.23769534      28.16011310
F        6.74152671       8.23770442      28.16011310
C        5.66337570       6.59304116      29.44160173
H        6.54520692       5.95235895      29.44160173
H        4.78154988       5.95235152      29.44160173
C        5.66337220       7.42524960      30.72309036
F        4.58521084       8.23769534      30.72309036
F        6.74152671       8.23770442      30.72309036
C        5.66337570       6.59304116      32.00457899
H        6.54520692       5.95235895      32.00457899
H        4.78154988       5.95235152      32.00457899
C        5.66337220       7.42524960      33.28606761
F        4.58521084       8.23769534      33.28606761
F        6.74152671       8.23770442      33.28606761
C       11.32674477       0.52465800       0.00000000
H       10.44491355       1.16534021       0.00000000
H       12.20857060       1.16534763       0.00000000
C       11.32674828      -0.30755045       1.28148863
F       12.40490964      -1.11999619       1.28148863
F       10.24859376      -1.12000527       1.28148863
C       11.32674477       0.52465800       2.56297726
H       10.44491355       1.16534021       2.56297726
H       12.20857060       1.16534763       2.56297726
C       11.32674828      -0.30755045       3.84446588
F       12.40490964      -1.11999619       3.84446588
F       10.24859376      -1.12000527       3.84446588
C       11.32674477       0.52465800       5.12595451
H       10.44491355       1.16534021       5.12595451
H       12.20857060       1.16534763       5.12595451
C       11.32674828      -0.30755045       6.40744314
F       12.40490964      -1.11999619       6.40744314
F       10.24859376      -1.12000527       6.40744314
C       11.32674477       0.52465800       7.68893177
H       10.44491355       1.16534021       7.68893177
H       12.20857060       1.16534763       7.68893177
C       11.32674828      -0.30755045       8.97042039
F       12.40490964      -1.11999619       8.97042039
F       10.24859376      -1.12000527       8.97042039
C       11.32674477       0.52465800      10.25190902
H       10.44491355       1.16534021      10.25190902
H       12.20857060       1.16534763      10.25190902
C       11.32674828      -0.30755045      11.53339765
F       12.40490964      -1.11999619      11.53339765
F       10.24859376      -1.12000527      11.53339765
C       11.32674477       0.52465800      12.81488628
H       10.44491355       1.16534021      12.81488628
H       12.20857060       1.16534763      12.81488628
C       11.32674828      -0.30755045      14.09637491
F       12.40490964      -1.11999619      14.09637491
F       10.24859376      -1.12000527      14.09637491
C       11.32674477       0.52465800      15.37786353
H       10.44491355       1.16534021      15.37786353
H       12.20857060       1.16534763      15.37786353
C       11.32674828      -0.30755045      16.65935216
C       12.53090533      -1.15070274      16.65935216
N       13.48112451      -1.81604740      16.65935216
C       10.12259832      -1.15071288      16.65935216
N        9.17238475      -1.81606555      16.65935216
C       11.32674477       0.52465800      17.94084079
H       10.44491355       1.16534021      17.94084079
H       12.20857060       1.16534763      17.94084079
C       11.32674828      -0.30755045      19.22232942
F       12.40490964      -1.11999619      19.22232942
F       10.24859376      -1.12000527      19.22232942
C       11.32674477       0.52465800      20.50381805
H       10.44491355       1.16534021      20.50381805
H       12.20857060       1.16534763      20.50381805
C       11.32674828      -0.30755045      21.78530667
F       12.40490964      -1.11999619      21.78530667
F       10.24859376      -1.12000527      21.78530667
C       11.32674477       0.52465800      23.06679530
H       10.44491355       1.16534021      23.06679530
H       12.20857060       1.16534763      23.06679530
C       11.32674828      -0.30755045      24.34828393
F       12.40490964      -1.11999619      24.34828393
F       10.24859376      -1.12000527      24.34828393
C       11.32674477       0.52465800      25.62977256
H       10.44491355       1.16534021      25.62977256
H       12.20857060       1.16534763      25.62977256
C       11.32674828      -0.30755045      26.91126118
F       12.40490964      -1.11999619      26.91126118
F       10.24859376      -1.12000527      26.91126118
C       11.32674477       0.52465800      28.19274981
H       10.44491355       1.16534021      28.19274981
H       12.20857060       1.16534763      28.19274981
C       11.32674828      -0.30755045      29.47423844
F       12.40490964      -1.11999619      29.47423844
F       10.24859376      -1.12000527      29.47423844
C       16.99012268       1.84790839       3.81182917
H       17.87195391       1.20722618       3.81182917
H       16.10829686       1.20721875       3.81182917
C       16.99011918       2.68011683       5.09331780
F       15.91195782       3.49256257       5.09331780
F       18.06827370       3.49257166       5.09331780
C       16.99012268       1.84790839       6.37480643
H       17.87195391       1.20722618       6.37480643
H       16.10829686       1.20721875       6.37480643
C       16.99011918       2.68011683       7.65629506
F       15.91195782       3.49256257       7.65629506
F       18.06827370       3.49257166       7.65629506
C       16.99012268       1.84790839       8.93778368
H       17.87195391       1.20722618       8.93778368
H       16.10829686       1.20721875       8.93778368
C       16.99011918       2.68011683      10.21927231
F       15.91195782       3.49256257      10.21927231
F       18.06827370       3.49257166      10.21927231
C       16.99012268       1.84790839      11.50076094
H       17.87195391       1.20722618      11.50076094
H       16.10829686       1.20721875      11.50076094
C       16.99011918       2.68011683      12.78224957
F       15.91195782       3.49256257      12.78224957
F       18.06827370       3.49257166      12.78224957
C       16.99012268       1.84790839      14.06373820
H       17.87195391       1.20722618      14.06373820
H       16.10829686       1.20721875      14.06373820
C       16.99011918       2.68011683      15.34522682
F       15.91195782       3.49256257      15.34522682
F       18.06827370       3.49257166      15.34522682
C       16.99012268       1.84790839      16.62671545
H       17.87195391       1.20722618      16.62671545
H       16.10829686       1.20721875      16.62671545
C       16.99011918       2.68011683      17.90820408
F       15.91195782       3.49256257      17.90820408
F       18.06827370       3.49257166      17.90820408
C       16.99012268       1.84790839      19.18969271
H       17.87195391       1.20722618      19.18969271
H       16.10829686       1.20721875      19.18969271
C       16.99011918       2.68011683      20.47118134
C       15.78596212       3.52326912      20.47118134
N       14.83574295       4.18861379      20.47118134
C       18.19426913       3.52327927      20.47118134
N       19.14448270       4.18863193      20.47118134
C       16.99012268       1.84790839      21.75266996
H       17.87195391       1.20722618      21.75266996
H       16.10829686       1.20721875      21.75266996
C       16.99011918       2.68011683      23.03415859
F       15.91195782       3.49256257      23.03415859
F       18.06827370       3.49257166      23.03415859
C       16.99012268       1.84790839      24.31564722
H       17.87195391       1.20722618      24.31564722
H       16.10829686       1.20721875      24.31564722
C       16.99011918       2.68011683      25.59713585
F       15.91195782       3.49256257      25.59713585
F       18.06827370       3.49257166      25.59713585
C       16.99012268       1.84790839      26.87862447
H       17.87195391       1.20722618      26.87862447
H       16.10829686       1.20721875      26.87862447
C       16.99011918       2.68011683      28.16011310
F       15.91195782       3.49256257      28.16011310
F       18.06827370       3.49257166      28.16011310
C       16.99012268       1.84790839      29.44160173
H       17.87195391       1.20722618      29.44160173
H       16.10829686       1.20721875      29.44160173
C       16.99011918       2.68011683      30.72309036
F       15.91195782       3.49256257      30.72309036
F       18.06827370       3.49257166      30.72309036
C       16.99012268       1.84790839      32.00457899
H       17.87195391       1.20722618      32.00457899
H       16.10829686       1.20721875      32.00457899
C       16.99011918       2.68011683      33.28606761
F       15.91195782       3.49256257      33.28606761
F       18.06827370       3.49257166      33.28606761
C       11.32674477       5.26979076       0.00000000
H       10.44491355       5.91047298       0.00000000
H       12.20857060       5.91048040       0.00000000
C       11.32674828       4.43758232       1.28148863
F       12.40490964       3.62513658       1.28148863
F       10.24859376       3.62512750       1.28148863
C       11.32674477       5.26979076       2.56297726
H       10.44491355       5.91047298       2.56297726
H       12.20857060       5.91048040       2.56297726
C       11.32674828       4.43758232       3.84446588
F       12.40490964       3.62513658       3.84446588
F       10.24859376       3.62512750       3.84446588
C       11.32674477       5.26979076       5.12595451
H       10.44491355       5.91047298       5.12595451
H       12.20857060       5.91048040       5.12595451
C       11.32674828       4.43758232       6.40744314
F       12.40490964       3.62513658       6.40744314
F       10.24859376       3.62512750       6.40744314
C       11.32674477       5.26979076       7.68893177
H       10.44491355       5.91047298       7.68893177
H       12.20857060       5.91048040       7.68893177
C       11.32674828       4.43758232       8.97042039
F       12.40490964       3.62513658       8.97042039
F       10.24859376       3.62512750       8.97042039
C       11.32674477       5.26979076      10.25190902
H       10.44491355       5.91047298      10.25190902
H       12.20857060       5.91048040      10.25190902
C       11.32674828       4.43758232      11.53339765
F       12.40490964       3.62513658      11.53339765
F       10.24859376       3.62512750      11.53339765
C       11.32674477       5.26979076      12.81488628
H       10.44491355       5.91047298      12.81488628
H       12.20857060       5.91048040      12.81488628
C       11.32674828       4.43758232      14.09637491
F       12.40490964       3.62513658      14.09637491
F       10.24859376       3.62512750      14.09637491
C       11.32674477       5.26979076      15.37786353
H       10.44491355       5.91047298      15.37786353
H       12.20857060       5.91048040      15.37786353
C       11.32674828       4.43758232      16.65935216
C       12.53090533       3.59443003      16.65935216
N       13.48112451       2.92908536      16.65935216
C       10.12259832       3.59441989      16.65935216
N        9.17238475       2.92906722      16.65935216
C       11.32674477       5.26979076      17.94084079
H       10.44491355       5.91047298      17.94084079
H       12.20857060       5.91048040      17.94084079
C       11.32674828       4.43758232      19.22232942
F       12.40490964       3.62513658      19.22232942
F       10.24859376       3.62512750      19.22232942
C       11.32674477       5.26979076      20.50381805
H       10.44491355       5.91047298      20.50381805
H       12.20857060       5.91048040      20.50381805
C       11.32674828       4.43758232      21.78530667
F       12.40490964       3.62513658      21.78530667
F       10.24859376       3.62512750      21.78530667
C       11.32674477       5.26979076      23.06679530
H       10.44491355       5.91047298      23.06679530
H       12.20857060       5.91048040      23.06679530
C       11.32674828       4.43758232      24.34828393
F       12.40490964       3.62513658      24.34828393
F       10.24859376       3.62512750      24.34828393
C       11.32674477       5.26979076      25.62977256
H       10.44491355       5.91047298      25.62977256
H       12.20857060       5.91048040      25.62977256
C       11.32674828       4.43758232      26.91126118
F       12.40490964       3.62513658      26.91126118
F       10.24859376       3.62512750      26.91126118
C       11.32674477       5.26979076      28.19274981
H       10.44491355       5.91047298      28.19274981
H       12.20857060       5.91048040      28.19274981
C       11.32674828       4.43758232      29.47423844
F       12.40490964       3.62513658      29.47423844
F       10.24859376       3.62512750      29.47423844
C       16.99012268       6.59304116       3.81182917
H       17.87195391       5.95235895       3.81182917
H       16.10829686       5.95235152       3.81182917
C       16.99011918       7.42524960       5.09331780
F       15.91195782       8.23769534       5.09331780
F       18.06827370       8.23770442       5.09331780
C       16.99012268       6.59304116       6.37480643
H       17.87195391       5.95235895       6.37480643
H       16.10829686       5.95235152       6.37480643
C       16.99011918       7.42524960       7.65629506
F       15.91195782       8.23769534       7.65629506
F       18.06827370       8.23770442       7.65629506
C       16.99012268       6.59304116       8.93778368
H       17.87195391       5.95235895       8.93778368
H       16.10829686       5.95235152       8.93778368
C       16.99011918       7.42524960      10.21927231
F       15.91195782       8.23769534      10.21927231
F       18.06827370       8.23770442      10.21927231
C       16.99012268       6.59304116      11.50076094
H       17.87195391       5.95235895      11.50076094
H       16.10829686       5.95235152      11.50076094
C       16.99011918       7.42524960      12.78224957
F       15.91195782       8.23769534      12.78224957
F       18.06827370       8.23770442      12.78224957
C       16.99012268       6.59304116      14.06373820
H       17.87195391       5.95235895      14.06373820
H       16.10829686       5.95235152      14.06373820
C       16.99011918       7.42524960      15.34522682
F       15.91195782       8.23769534      15.34522682
F       18.06827370       8.23770442      15.34522682
C       16.99012268       6.59304116      16.62671545
H       17.87195391       5.95235895      16.62671545
H       16.10829686       5.95235152      16.62671545
C       16.99011918       7.42524960      17.90820408
F       15.91195782       8.23769534      17.90820408
F       18.06827370       8.23770442      17.90820408
C       16.99012268       6.59304116      19.18969271
H       17.87195391       5.95235895      19.18969271
H       16.10829686       5.95235152      19.18969271
C       16.99011918       7.42524960      20.47118134
C       15.78596212       8.26840189      20.47118134
N       14.83574295       8.93374656      20.47118134
C       18.19426913       8.26841204      20.47118134
N       19.14448270       8.93376470      20.47118134
C       16.99012268       6.59304116      21.75266996
H       17.87195391       5.95235895      21.75266996
H       16.10829686       5.95235152      21.75266996
C       16.99011918       7.42524960      23.03415859
F       15.91195782       8.23769534      23.03415859
F       18.06827370       8.23770442      23.03415859
C       16.99012268       6.59304116      24.31564722
H       17.87195391       5.95235895      24.31564722
H       16.10829686       5.95235152      24.31564722
C       16.99011918       7.42524960      25.59713585
F       15.91195782       8.23769534      25.59713585
F       18.06827370       8.23770442      25.59713585
C       16.99012268       6.59304116      26.87862447
H       17.87195391       5.95235895      26.87862447
H       16.10829686       5.95235152      26.87862447
C       16.99011918       7.42524960      28.16011310
F       15.91195782       8.23769534      28.16011310
F       18.06827370       8.23770442      28.16011310
C       16.99012268       6.59304116      29.44160173
H       17.87195391       5.95235895      29.44160173
H       16.10829686       5.95235152      29.44160173
C       16.99011918       7.42524960      30.72309036
F       15.91195782       8.23769534      30.72309036
F       18.06827370       8.23770442      30.72309036
C       16.99012268       6.59304116      32.00457899
H       17.87195391       5.95235895      32.00457899
H       16.10829686       5.95235152      32.00457899
C       16.99011918       7.42524960      33.28606761
F       15.91195782       8.23769534      33.28606761
F       18.06827370       8.23770442      33.28606761
