592
Lattice="20.93763061 0.00000000 0.00000000 0.00000000 9.60864397 0.00000000 0.00000000 0.00000000 30.75572707" Properties=species:S:1:pos:R:3 pbc="T T T" polyfind_label="polar staggered-ladder all-trans 11VDF:1VDCN" stagger_monomers="0 3 6 9 0 3 6 9" energy_per_monomer_kcal_mol=-4.523562 density_g_cm3=1.679883 min_interchain_distance_A=2.5660
C       -0.00000014       0.52465800       0.00000000
H       -0.88182885       1.16534368       0.00000000
H        0.88182820       1.16534416       0.00000000
C        0.00000008      -0.30755045       1.28148863
F        1.07815825      -1.12000043       1.28148863
F       -1.07815763      -1.12000103       1.28148863
C       -0.00000014       0.52465800       2.56297726
H       -0.88182885       1.16534368       2.56297726
H        0.88182820       1.16534416       2.56297726
C        0.00000008      -0.30755045       3.84446588
F        1.07815825      -1.12000043       3.84446588
F       -1.07815763      -1.12000103       3.84446588
C       -0.00000014       0.52465800       5.12595451
H       -0.88182885       1.16534368       5.12595451
H        0.88182820       1.16534416       5.12595451
C        0.00000008      -0.30755045       6.40744314
F        1.07815825      -1.12000043       6.40744314
F       -1.07815763      -1.12000103       6.40744314
C       -0.00000014       0.52465800       7.68893177
H       -0.88182885       1.16534368       7.68893177
H        0.88182820       1.16534416       7.68893177
C        0.00000008      -0.30755045       8.97042039
F        1.07815825      -1.12000043       8.97042039
F       -1.07815763      -1.12000103       8.97042039
C       -0.00000014       0.52465800      10.25190902
H       -0.88182885       1.16534368      10.25190902
H        0.88182820       1.16534416      10.25190902
C        0.00000008      -0.30755045      11.53339765
F        1.07815825      -1.12000043      11.53339765
F       -1.07815763      -1.12000103      11.53339765
C       -0.00000014       0.52465800      12.81488628
H       -0.88182885       1.16534368      12.81488628
H        0.88182820       1.16534416      12.81488628
C        0.00000008      -0.30755045      14.09637491
F        1.07815825      -1.12000043      14.09637491
F       -1.07815763      -1.12000103      14.09637491
C       -0.00000014       0.52465800      15.37786353
H       -0.88182885       1.16534368      15.37786353
H        0.88182820       1.16534416      15.37786353
C        0.00000008      -0.30755045      16.65935216
C        1.20415382      -1.15070748      16.65935216
N        2.15437038      -1.81605588      16.65935216
C       -1.20415319      -1.15070814      16.65935216
N       -2.15436938      -1.81605707      16.65935216
C       -0.00000014       0.52465800      17.94084079
H       -0.88182885       1.16534368      17.94084079
H        0.88182820       1.16534416      17.94084079
C        0.00000008      -0.30755045      19.22232942
F        1.07815825      -1.12000043      19.22232942
F       -1.07815763      -1.12000103      19.22232942
C       -0.00000014       0.52465800      20.50381805
H       -0.88182885       1.16534368      20.50381805
H        0.88182820       1.16534416      20.50381805
C        0.00000008      -0.30755045      21.78530667
F        1.07815825      -1.12000043      21.78530667
F       -1.07815763      -1.12000103      21.78530667
C       -0.00000014       0.52465800      23.06679530
H       -0.88182885       1.16534368      23.06679530
H        0.88182820       1.16534416      23.06679530
C        0.00000008      -0.30755045      24.34828393
F        1.07815825      -1.12000043      24.34828393
F       -1.07815763      -1.12000103      24.34828393
C       -0.00000014       0.52465800      25.62977256
H       -0.88182885       1.16534368      25.62977256
H        0.88182820       1.16534416      25.62977256
C        0.00000008      -0.30755045      26.91126118
F        1.07815825      -1.12000043      26.91126118
F       -1.07815763      -1.12000103      26.91126118
C       -0.00000014       0.52465800      28.19274981
H       -0.88182885       1.16534368      28.19274981
H        0.88182820       1.16534416      28.19274981
C        0.00000008      -0.30755045      29.47423844
F        1.07815825      -1.12000043      29.47423844
F       -1.07815763      -1.12000103      29.47423844
C        5.23441114       2.92681899      28.21033132
H        4.35258688       3.56751078      28.21033132
H        6.11624393       3.56749905      28.21033132
C        5.23440561       2.09461054      29.49181995
F        6.31255814       1.28215309      29.49181995
F        4.15624227       1.28216743      29.49181995
C        5.23441114       2.92681899      30.77330858
H        4.35258688       3.56751078      30.77330858
H        6.11624393       3.56749905      30.77330858
C        5.23440561       2.09461054      32.05479721
F        6.31255814       1.28215309      32.05479721
F        4.15624227       1.28216743      32.05479721
C        5.23441114       2.92681899      33.33628583
H        4.35258688       3.56751078      33.33628583
H        6.11624393       3.56749905      33.33628583
C        5.23440561       2.09461054      34.61777446
F        6.31255814       1.28215309      34.61777446
F        4.15624227       1.28216743      34.61777446
C        5.23441114       2.92681899      35.89926309
H        4.35258688       3.56751078      35.89926309
H        6.11624393       3.56749905      35.89926309
C        5.23440561       2.09461054      37.18075172
F        6.31255814       1.28215309      37.18075172
F        4.15624227       1.28216743      37.18075172
C        5.23441114       2.92681899      38.46224035
H        4.35258688       3.56751078      38.46224035
H        6.11624393       3.56749905      38.46224035
C        5.23440561       2.09461054      39.74372897
F        6.31255814       1.28215309      39.74372897
F        4.15624227       1.28216743      39.74372897
C        5.23441114       2.92681899      41.02521760
H        4.35258688       3.56751078      41.02521760
H        6.11624393       3.56749905      41.02521760
C        5.23440561       2.09461054      42.30670623
F        6.31255814       1.28215309      42.30670623
F        4.15624227       1.28216743      42.30670623
C        5.23441114       2.92681899      43.58819486
H        4.35258688       3.56751078      43.58819486
H        6.11624393       3.56749905      43.58819486
C        5.23440561       2.09461054      44.86968349
C        6.43855351       1.25144518      44.86968349
N        7.38876545       0.58609019      44.86968349
C        4.03024650       1.25146119      44.86968349
N        3.08002570       0.58611884      44.86968349
C        5.23441114       2.92681899      46.15117211
H        4.35258688       3.56751078      46.15117211
H        6.11624393       3.56749905      46.15117211
C        5.23440561       2.09461054      47.43266074
F        6.31255814       1.28215309      47.43266074
F        4.15624227       1.28216743      47.43266074
C        5.23441114       2.92681899      48.71414937
H        4.35258688       3.56751078      48.71414937
H        6.11624393       3.56749905      48.71414937
C        5.23440561       2.09461054      49.99563800
F        6.31255814       1.28215309      49.99563800
F        4.15624227       1.28216743      49.99563800
C        5.23441114       2.92681899      51.27712662
H        4.35258688       3.56751078      51.27712662
H        6.11624393       3.56749905      51.27712662
C        5.23440561       2.09461054      52.55861525
F        6.31255814       1.28215309      52.55861525
F        4.15624227       1.28216743      52.55861525
C        5.23441114       2.92681899      53.84010388
H        4.35258688       3.56751078      53.84010388
H        6.11624393       3.56749905      53.84010388
C        5.23440561       2.09461054      55.12159251
F        6.31255814       1.28215309      55.12159251
F        4.15624227       1.28216743      55.12159251
C        5.23441114       2.92681899      56.40308114
H        4.35258688       3.56751078      56.40308114
H        6.11624393       3.56749905      56.40308114
C        5.23440561       2.09461054      57.68456976
F        6.31255814       1.28215309      57.68456976
F        4.15624227       1.28216743      57.68456976
C       -0.00000014       5.32897998      15.37786353
H       -0.88182885       5.96966566      15.37786353
H        0.88182820       5.96966615      15.37786353
C        0.00000008       4.49677154      16.65935216
F        1.07815825       3.68432155      16.65935216
F       -1.07815763       3.68432096      16.65935216
C       -0.00000014       5.32897998      17.94084079
H       -0.88182885       5.96966566      17.94084079
H        0.88182820       5.96966615      17.94084079
C        0.00000008       4.49677154      19.22232942
F        1.07815825       3.68432155      19.22232942
F       -1.07815763       3.68432096      19.22232942
C       -0.00000014       5.32897998      20.50381805
H       -0.88182885       5.96966566      20.50381805
H        0.88182820       5.96966615      20.50381805
C        0.00000008       4.49677154      21.78530667
F        1.07815825       3.68432155      21.78530667
F       -1.07815763       3.68432096      21.78530667
C       -0.00000014       5.32897998      23.06679530
H       -0.88182885       5.96966566      23.06679530
H        0.88182820       5.96966615      23.06679530
C        0.00000008       4.49677154      24.34828393
F        1.07815825       3.68432155      24.34828393
F       -1.07815763       3.68432096      24.34828393
C       -0.00000014       5.32897998      25.62977256
H       -0.88182885       5.96966566      25.62977256
H        0.88182820       5.96966615      25.62977256
C        0.00000008       4.49677154      26.91126118
F        1.07815825       3.68432155      26.91126118
F       -1.07815763       3.68432096      26.91126118
C       -0.00000014       5.32897998      28.19274981
H       -0.88182885       5.96966566      28.19274981
H        0.88182820       5.96966615      28.19274981
C        0.00000008       4.49677154      29.47423844
F        1.07815825       3.68432155      29.47423844
F       -1.07815763       3.68432096      29.47423844
C       -0.00000014       5.32897998      30.75572707
H       -0.88182885       5.96966566      30.75572707
H        0.88182820       5.96966615      30.75572707
C        0.00000008       4.49677154      32.03721570
C        1.20415382       3.65361451      32.03721570
N        2.15437038       2.98826610      32.03721570
C       -1.20415319       3.65361384      32.03721570
N       -2.15436938       2.98826492      32.03721570
C       -0.00000014       5.32897998      33.31870432
H       -0.88182885       5.96966566      33.31870432
H        0.88182820       5.96966615      33.31870432
C        0.00000008       4.49677154      34.60019295
F        1.07815825       3.68432155      34.60019295
F       -1.07815763       3.68432096      34.60019295
C       -0.00000014       5.32897998      35.88168158
H       -0.88182885       5.96966566      35.88168158
H        0.88182820       5.96966615      35.88168158
C        0.00000008       4.49677154      37.16317021
F        1.07815825       3.68432155      37.16317021
F       -1.07815763       3.68432096      37.16317021
C       -0.00000014       5.32897998      38.44465883
H       -0.88182885       5.96966566      38.44465883
H        0.88182820       5.96966615      38.44465883
C        0.00000008       4.49677154      39.72614746
F        1.07815825       3.68432155      39.72614746
F       -1.07815763       3.68432096      39.72614746
C       -0.00000014       5.32897998      41.00763609
H       -0.88182885       5.96966566      41.00763609
H        0.88182820       5.96966615      41.00763609
C        0.00000008       4.49677154      42.28912472
F        1.07815825       3.68432155      42.28912472
F       -1.07815763       3.68432096      42.28912472
C       -0.00000014       5.32897998      43.57061335
H       -0.88182885       5.96966566      43.57061335
H        0.88182820       5.96966615      43.57061335
C        0.00000008       4.49677154      44.85210197
F        1.07815825       3.68432155      44.85210197
F       -1.07815763       3.68432096      44.85210197
C        5.23441114       7.73114098      43.58819486
H        4.35258688       8.37183276      43.58819486
H        6.11624393       8.37182104      43.58819486
C        5.23440561       6.89893253      44.86968349
F        6.31255814       6.08647508      44.86968349
F        4.15624227       6.08648942      44.86968349
C        5.23441114       7.73114098      46.15117211
H        4.35258688       8.37183276      46.15117211
H        6.11624393       8.37182104      46.15117211
C        5.23440561       6.89893253      47.43266074
F        6.31255814       6.08647508      47.43266074
F        4.15624227       6.08648942      47.43266074
C        5.23441114       7.73114098      48.71414937
H        4.35258688       8.37183276      48.71414937
H        6.11624393       8.37182104      48.71414937
C        5.23440561       6.89893253      49.99563800
F        6.31255814       6.08647508      49.99563800
F        4.15624227       6.08648942      49.99563800
C        5.23441114       7.73114098      51.27712662
H        4.35258688       8.37183276      51.27712662
H        6.11624393       8.37182104      51.27712662
C        5.23440561       6.89893253      52.55861525
F        6.31255814       6.08647508      52.55861525
F        4.15624227       6.08648942      52.55861525
C        5.23441114       7.73114098      53.84010388
H        4.35258688       8.37183276      53.84010388
H        6.11624393       8.37182104      53.84010388
C        5.23440561       6.89893253      55.12159251
F        6.31255814       6.08647508      55.12159251
F        4.15624227       6.08648942      55.12159251
C        5.23441114       7.73114098      56.40308114
H        4.35258688       8.37183276      56.40308114
H        6.11624393       8.37182104      56.40308114
C        5.23440561       6.89893253      57.68456976
F        6.31255814       6.08647508      57.68456976
F        4.15624227       6.08648942      57.68456976
C        5.23441114       7.73114098      58.96605839
H        4.35258688       8.37183276      58.96605839
H        6.11624393       8.37182104      58.96605839
C        5.23440561       6.89893253      60.24754702
C        6.43855351       6.05576716      60.24754702
N        7.38876545       5.39041218      60.24754702
C        4.03024650       6.05578318      60.24754702
N        3.08002570       5.39044083      60.24754702
C        5.23441114       7.73114098      61.52903565
H        4.35258688       8.37183276      61.52903565
H        6.11624393       8.37182104      61.52903565
C        5.23440561       6.89893253      62.81052427
F        6.31255814       6.08647508      62.81052427
F        4.15624227       6.08648942      62.81052427
C        5.23441114       7.73114098      64.09201290
H        4.35258688       8.37183276      64.09201290
H        6.11624393       8.37182104      64.09201290
C        5.23440561       6.89893253      65.37350153
F        6.31255814       6.08647508      65.37350153
F        4.15624227       6.08648942      65.37350153
C        5.23441114       7.73114098      66.65499016
H        4.35258688       8.37183276      66.65499016
H        6.11624393       8.37182104      66.65499016
C        5.23440561       6.89893253      67.93647879
F        6.31255814       6.08647508      67.93647879
F        4.15624227       6.08648942      67.93647879
C        5.23441114       7.73114098      69.21796741
H        4.35258688       8.37183276      69.21796741
H        6.11624393       8.37182104      69.21796741
C        5.23440561       6.89893253      70.49945604
F        6.31255814       6.08647508      70.49945604
F        4.15624227       6.08648942      70.49945604
C        5.23441114       7.73114098      71.78094467
H        4.35258688       8.37183276      71.78094467
H        6.11624393       8.37182104      71.78094467
C        5.23440561       6.89893253      73.06243330
F        6.31255814       6.08647508      73.06243330
F        4.15624227       6.08648942      73.06243330
C       10.46881516       0.52465800       0.00000000
H        9.58698646       1.16534368       0.00000000
H       11.35064351       1.16534416       0.00000000
C       10.46881539      -0.30755045       1.28148863
F       11.54697355      -1.12000043       1.28148863
F        9.39065768      -1.12000103       1.28148863
C       10.46881516       0.52465800       2.56297726
H        9.58698646       1.16534368       2.56297726
H       11.35064351       1.16534416       2.56297726
C       10.46881539      -0.30755045       3.84446588
F       11.54697355      -1.12000043       3.84446588
F        9.39065768      -1.12000103       3.84446588
C       10.46881516       0.52465800       5.12595451
H        9.58698646       1.16534368       5.12595451
H       11.35064351       1.16534416       5.12595451
C       10.46881539      -0.30755045       6.40744314
F       11.54697355      -1.12000043       6.40744314
F        9.39065768      -1.12000103       6.40744314
C       10.46881516       0.52465800       7.68893177
H        9.58698646       1.16534368       7.68893177
H       11.35064351       1.16534416       7.68893177
C       10.46881539      -0.30755045       8.97042039
F       11.54697355      -1.12000043       8.97042039
F        9.39065768      -1.12000103       8.97042039
C       10.46881516       0.52465800      10.25190902
H        9.58698646       1.16534368      10.25190902
H       11.35064351       1.16534416      10.25190902
C       10.46881539      -0.30755045      11.53339765
F       11.54697355      -1.12000043      11.53339765
F        9.39065768      -1.12000103      11.53339765
C       10.46881516       0.52465800      12.81488628
H        9.58698646       1.16534368      12.81488628
H       11.35064351       1.16534416      12.81488628
C       10.46881539      -0.30755045      14.09637491
F       11.54697355      -1.12000043      14.09637491
F        9.39065768      -1.12000103      14.09637491
C       10.46881516       0.52465800      15.37786353
H        9.58698646       1.16534368      15.37786353
H       11.35064351       1.16534416      15.37786353
C       10.46881539      -0.30755045      16.65935216
C       11.67296913      -1.15070748      16.65935216
N       12.62318568      -1.81605588      16.65935216
C        9.26466212      -1.15070814      16.65935216
N        8.31444593      -1.81605707      16.65935216
C       10.46881516       0.52465800      17.94084079
H        9.58698646       1.16534368      17.94084079
H       11.35064351       1.16534416      17.94084079
C       10.46881539      -0.30755045      19.22232942
F       11.54697355      -1.12000043      19.22232942
F        9.39065768      -1.12000103      19.22232942
C       10.46881516       0.52465800      20.50381805
H        9.58698646       1.16534368      20.50381805
H       11.35064351       1.16534416      20.50381805
C       10.46881539      -0.30755045      21.78530667
F       11.54697355      -1.12000043      21.78530667
F        9.39065768      -1.12000103      21.78530667
C       10.46881516       0.52465800      23.06679530
H        9.58698646       1.16534368      23.06679530
H       11.35064351       1.16534416      23.06679530
C       10.46881539      -0.30755045      24.34828393
F       11.54697355      -1.12000043      24.34828393
F        9.39065768      -1.12000103      24.34828393
C       10.46881516       0.52465800      25.62977256
H        9.58698646       1.16534368      25.62977256
H       11.35064351       1.16534416      25.62977256
C       10.46881539      -0.30755045      26.91126118
F       11.54697355      -1.12000043      26.91126118
F        9.39065768      -1.12000103      26.91126118
C       10.46881516       0.52465800      28.19274981
H        9.58698646       1.16534368      28.19274981
H       11.35064351       1.16534416      28.19274981
C       10.46881539      -0.30755045      29.47423844
F       11.54697355      -1.12000043      29.47423844
F        9.39065768      -1.12000103      29.47423844
C       15.70322645       2.92681899      28.21033132
H       14.82140219       3.56751078      28.21033132
H       16.58505923       3.56749905      28.21033132
C       15.70322092       2.09461054      29.49181995
F       16.78137345       1.28215309      29.49181995
F       14.62505757       1.28216743      29.49181995
C       15.70322645       2.92681899      30.77330858
H       14.82140219       3.56751078      30.77330858
H       16.58505923       3.56749905      30.77330858
C       15.70322092       2.09461054      32.05479721
F       16.78137345       1.28215309      32.05479721
F       14.62505757       1.28216743      32.05479721
C       15.70322645       2.92681899      33.33628583
H       14.82140219       3.56751078      33.33628583
H       16.58505923       3.56749905      33.33628583
C       15.70322092       2.09461054      34.61777446
F       16.78137345       1.28215309      34.61777446
F       14.62505757       1.28216743      34.61777446
C       15.70322645       2.92681899      35.89926309
H       14.82140219       3.56751078      35.89926309
H       16.58505923       3.56749905      35.89926309
C       15.70322092       2.09461054      37.18075172
F       16.78137345       1.28215309      37.18075172
F       14.62505757       1.28216743      37.18075172
C       15.70322645       2.92681899      38.46224035
H       14.82140219       3.56751078      38.46224035
H       16.58505923       3.56749905      38.46224035
C       15.70322092       2.09461054      39.74372897
F       16.78137345       1.28215309      39.74372897
F       14.62505757       1.28216743      39.74372897
C       15.70322645       2.92681899      41.02521760
H       14.82140219       3.56751078      41.02521760
H       16.58505923       3.56749905      41.02521760
C       15.70322092       2.09461054      42.30670623
F       16.78137345       1.28215309      42.30670623
F       14.62505757       1.28216743      42.30670623
C       15.70322645       2.92681899      43.58819486
H       14.82140219       3.56751078      43.58819486
H       16.58505923       3.56749905      43.58819486
C       15.70322092       2.09461054      44.86968349
C       16.90736881       1.25144518      44.86968349
N       17.85758076       0.58609019      44.86968349
C       14.49906180       1.25146119      44.86968349
N       13.54884101       0.58611884      44.86968349
C       15.70322645       2.92681899      46.15117211
H       14.82140219       3.56751078      46.15117211
H       16.58505923       3.56749905      46.15117211
C       15.70322092       2.09461054      47.43266074
F       16.78137345       1.28215309      47.43266074
F       14.62505757       1.28216743      47.43266074
C       15.70322645       2.92681899      48.71414937
H       14.82140219       3.56751078      48.71414937
H       16.58505923       3.56749905      48.71414937
C       15.70322092       2.09461054      49.99563800
F       16.78137345       1.28215309      49.99563800
F       14.62505757       1.28216743      49.99563800
C       15.70322645       2.92681899      51.27712662
H       14.82140219       3.56751078      51.27712662
H       16.58505923       3.56749905      51.27712662
C       15.70322092       2.09461054      52.55861525
F       16.78137345       1.28215309      52.55861525
F       14.62505757       1.28216743      52.55861525
C       15.70322645       2.92681899      53.84010388
H       14.82140219       3.56751078      53.84010388
H       16.58505923       3.56749905      53.84010388
C       15.70322092       2.09461054      55.12159251
F       16.78137345       1.28215309      55.12159251
F       14.62505757       1.28216743      55.12159251
C       15.70322645       2.92681899      56.40308114
H       14.82140219       3.56751078      56.40308114
H       16.58505923       3.56749905      56.40308114
C       15.70322092       2.09461054      57.68456976
F       16.78137345       1.28215309      57.68456976
F       14.62505757       1.28216743      57.68456976
C       10.46881516       5.32897998      15.37786353
H        9.58698646       5.96966566      15.37786353
H       11.35064351       5.96966615      15.37786353
C       10.46881539       4.49677154      16.65935216
F       11.54697355       3.68432155      16.65935216
F        9.39065768       3.68432096      16.65935216
C       10.46881516       5.32897998      17.94084079
H        9.58698646       5.96966566      17.94084079
H       11.35064351       5.96966615      17.94084079
C       10.46881539       4.49677154      19.22232942
F       11.54697355       3.68432155      19.22232942
F        9.39065768       3.68432096      19.22232942
C       10.46881516       5.32897998      20.50381805
H        9.58698646       5.96966566      20.50381805
H       11.35064351       5.96966615      20.50381805
C       10.46881539       4.49677154      21.78530667
F       11.54697355       3.68432155      21.78530667
F        9.39065768       3.68432096      21.78530667
C       10.46881516       5.32897998      23.06679530
H        9.58698646       5.96966566      23.06679530
H       11.35064351       5.96966615      23.06679530
C       10.46881539       4.49677154      24.34828393
F       11.54697355       3.68432155      24.34828393
F        9.39065768       3.68432096      24.34828393
C       10.46881516       5.32897998      25.62977256
H        9.58698646       5.96966566      25.62977256
H       11.35064351       5.96966615      25.62977256
C       10.46881539       4.49677154      26.91126118
F       11.54697355       3.68432155      26.91126118
F        9.39065768       3.68432096      26.91126118
C       10.46881516       5.32897998      28.19274981
H        9.58698646       5.96966566      28.19274981
H       11.35064351       5.96966615      28.19274981
C       10.46881539       4.49677154      29.47423844
F       11.54697355       3.68432155      29.47423844
F        9.39065768       3.68432096      29.47423844
C       10.46881516       5.32897998      30.75572707
H        9.58698646       5.96966566      30.75572707
H       11.35064351       5.96966615      30.75572707
C       10.46881539       4.49677154      32.03721570
C       11.67296913       3.65361451      32.03721570
N       12.62318568       2.98826610      32.03721570
C        9.26466212       3.65361384      32.03721570
N        8.31444593       2.98826492      32.03721570
C       10.46881516       5.32897998      33.31870432
H        9.58698646       5.96966566      33.31870432
H       11.35064351       5.96966615      33.31870432
C       10.46881539       4.49677154      34.60019295
F       11.54697355       3.68432155      34.60019295
F        9.39065768       3.68432096      34.60019295
C       10.46881516       5.32897998      35.88168158
H        9.58698646       5.96966566      35.88168158
H       11.35064351       5.96966615      35.88168158
C       10.46881539       4.49677154      37.16317021
F       11.54697355       3.68432155      37.16317021
F        9.39065768       3.68432096      37.16317021
C       10.46881516       5.32897998      38.44465883
H        9.58698646       5.96966566      38.44465883
H       11.35064351       5.96966615      38.44465883
C       10.46881539       4.49677154      39.72614746
F       11.54697355       3.68432155      39.72614746
F        9.39065768       3.68432096      39.72614746
C       10.46881516       5.32897998      41.00763609
H        9.58698646       5.96966566      41.00763609
H       11.35064351       5.96966615      41.00763609
C       10.46881539       4.49677154      42.28912472
F       11.54697355       3.68432155      42.28912472
F        9.39065768       3.68432096      42.28912472
C       10.46881516       5.32897998      43.57061335
H        9.58698646       5.96966566      43.57061335
H       11.35064351       5.96966615      43.57061335
C       10.46881539       4.49677154      44.85210197
F       11.54697355       3.68432155      44.85210197
F        9.39065768       3.68432096      44.85210197
C       15.70322645       7.73114098      43.58819486
H       14.82140219       8.37183276      43.58819486
H       16.58505923       8.37182104      43.58819486
C       15.70322092       6.89893253      44.86968349
F       16.78137345       6.08647508      44.86968349
F       14.62505757       6.08648942      44.86968349
C       15.70322645       7.73114098      46.15117211
H       14.82140219       8.37183276      46.15117211
H       16.58505923       8.37182104      46.15117211
C       15.70322092       6.89893253      47.43266074
F       16.78137345       6.08647508      47.43266074
F       14.62505757       6.08648942      47.43266074
C       15.70322645       7.73114098      48.71414937
H       14.82140219       8.37183276      48.71414937
H       16.58505923       8.37182104      48.71414937
C       15.70322092       6.89893253      49.99563800
F       16.78137345       6.08647508      49.99563800
F       14.62505757       6.08648942      49.99563800
C       15.70322645       7.73114098      51.27712662
H       14.82140219       8.37183276      51.27712662
H       16.58505923       8.37182104      51.27712662
C       15.70322092       6.89893253      52.55861525
F       16.78137345       6.08647508      52.55861525
F       14.62505757       6.08648942      52.55861525
C       15.70322645       7.73114098      53.84010388
H       14.82140219       8.37183276      53.84010388
H       16.58505923       8.37182104      53.84010388
C       15.70322092       6.89893253      55.12159251
F       16.78137345       6.08647508      55.12159251
F       14.62505757       6.08648942      55.12159251
C       15.70322645       7.73114098      56.40308114
H       14.82140219       8.37183276      56.40308114
H       16.58505923       8.37182104      56.40308114
C       15.70322092       6.89893253      57.68456976
F       16.78137345       6.08647508      57.68456976
F       14.62505757       6.08648942      57.68456976
C       15.70322645       7.73114098      58.96605839
H       14.82140219       8.37183276      58.96605839
H       16.58505923       8.37182104      58.96605839
C       15.70322092       6.89893253      60.24754702
C       16.90736881       6.05576716      60.24754702
N       17.85758076       5.39041218      60.24754702
C       14.49906180       6.05578318      60.24754702
N       13.54884101       5.39044083      60.24754702
C       15.70322645       7.73114098      61.52903565
H       14.82140219       8.37183276      61.52903565
H       16.58505923       8.37182104      61.52903565
C       15.70322092       6.89893253      62.81052427
F       16.78137345       6.08647508      62.81052427
F       14.62505757       6.08648942      62.81052427
C       15.70322645       7.73114098      64.09201290
H       14.82140219       8.37183276      64.09201290
H       16.58505923       8.37182104      64.09201290
C       15.70322092       6.89893253      65.37350153
F       16.78137345       6.08647508      65.37350153
F       14.62505757       6.08648942      65.37350153
C       15.70322645       7.73114098      66.65499016
H       14.82140219       8.37183276      66.65499016
H       16.58505923       8.37182104      66.65499016
C       15.70322092       6.89893253      67.93647879
F       16.78137345       6.08647508      67.93647879
F       14.62505757       6.08648942      67.93647879
C       15.70322645       7.73114098      69.21796741
H       14.82140219       8.37183276      69.21796741
H       16.58505923       8.37182104      69.21796741
C       15.70322092       6.89893253      70.49945604
F       16.78137345       6.08647508      70.49945604
F       14.62505757       6.08648942      70.49945604
C       15.70322645       7.73114098      71.78094467
H       14.82140219       8.37183276      71.78094467
H       16.58505923       8.37182104      71.78094467
C       15.70322092       6.89893253      73.06243330
F       16.78137345       6.08647508      73.06243330
F       14.62505757       6.08648942      73.06243330
