592
Lattice="22.66544195 0.00000000 0.00000000 0.00000000 9.49331925 0.00000000 0.00000000 0.00000000 30.75572707" Properties=species:S:1:pos:R:3 pbc="T T T" polyfind_label="antipolar staggered-ladder all-trans 11VDF:1VDCN" stagger_monomers="0 3 6 9 0 3 6 9" energy_per_monomer_kcal_mol=-3.723354 density_g_cm3=1.570675 min_interchain_distance_A=2.5254
C       -0.00000078       0.52465800       0.00000000
H       -0.88183026       1.16534260       0.00000000
H        0.88182678       1.16534524       0.00000000
C        0.00000046      -0.30755045       1.28148863
F        1.07815961      -1.11999912       1.28148863
F       -1.07815627      -1.12000234       1.28148863
C       -0.00000078       0.52465800       2.56297726
H       -0.88183026       1.16534260       2.56297726
H        0.88182678       1.16534524       2.56297726
C        0.00000046      -0.30755045       3.84446588
F        1.07815961      -1.11999912       3.84446588
F       -1.07815627      -1.12000234       3.84446588
C       -0.00000078       0.52465800       5.12595451
H       -0.88183026       1.16534260       5.12595451
H        0.88182678       1.16534524       5.12595451
C        0.00000046      -0.30755045       6.40744314
F        1.07815961      -1.11999912       6.40744314
F       -1.07815627      -1.12000234       6.40744314
C       -0.00000078       0.52465800       7.68893177
H       -0.88183026       1.16534260       7.68893177
H        0.88182678       1.16534524       7.68893177
C        0.00000046      -0.30755045       8.97042039
F        1.07815961      -1.11999912       8.97042039
F       -1.07815627      -1.12000234       8.97042039
C       -0.00000078       0.52465800      10.25190902
H       -0.88183026       1.16534260      10.25190902
H        0.88182678       1.16534524      10.25190902
C        0.00000046      -0.30755045      11.53339765
F        1.07815961      -1.11999912      11.53339765
F       -1.07815627      -1.12000234      11.53339765
C       -0.00000078       0.52465800      12.81488628
H       -0.88183026       1.16534260      12.81488628
H        0.88182678       1.16534524      12.81488628
C        0.00000046      -0.30755045      14.09637491
F        1.07815961      -1.11999912      14.09637491
F       -1.07815627      -1.12000234      14.09637491
C       -0.00000078       0.52465800      15.37786353
H       -0.88183026       1.16534260      15.37786353
H        0.88182678       1.16534524      15.37786353
C        0.00000046      -0.30755045      16.65935216
C        1.20415522      -1.15070601      16.65935216
N        2.15437259      -1.81605326      16.65935216
C       -1.20415179      -1.15070961      16.65935216
N       -2.15436717      -1.81605969      16.65935216
C       -0.00000078       0.52465800      17.94084079
H       -0.88183026       1.16534260      17.94084079
H        0.88182678       1.16534524      17.94084079
C        0.00000046      -0.30755045      19.22232942
F        1.07815961      -1.11999912      19.22232942
F       -1.07815627      -1.12000234      19.22232942
C       -0.00000078       0.52465800      20.50381805
H       -0.88183026       1.16534260      20.50381805
H        0.88182678       1.16534524      20.50381805
C        0.00000046      -0.30755045      21.78530667
F        1.07815961      -1.11999912      21.78530667
F       -1.07815627      -1.12000234      21.78530667
C       -0.00000078       0.52465800      23.06679530
H       -0.88183026       1.16534260      23.06679530
H        0.88182678       1.16534524      23.06679530
C        0.00000046      -0.30755045      24.34828393
F        1.07815961      -1.11999912      24.34828393
F       -1.07815627      -1.12000234      24.34828393
C       -0.00000078       0.52465800      25.62977256
H       -0.88183026       1.16534260      25.62977256
H        0.88182678       1.16534524      25.62977256
C        0.00000046      -0.30755045      26.91126118
F        1.07815961      -1.11999912      26.91126118
F       -1.07815627      -1.12000234      26.91126118
C       -0.00000078       0.52465800      28.19274981
H       -0.88183026       1.16534260      28.19274981
H        0.88182678       1.16534524      28.19274981
C        0.00000046      -0.30755045      29.47423844
F        1.07815961      -1.11999912      29.47423844
F       -1.07815627      -1.12000234      29.47423844
C        5.66636127       1.84867182      19.18745433
H        6.54819075       1.20798721      19.18745433
H        4.78453370       1.20798458      19.18745433
C        5.66636003       2.68088026      20.46894296
F        4.58820088       3.49332893      20.46894296
F        6.74451675       3.49333215      20.46894296
C        5.66636127       1.84867182      21.75043159
H        6.54819075       1.20798721      21.75043159
H        4.78453370       1.20798458      21.75043159
C        5.66636003       2.68088026      23.03192022
F        4.58820088       3.49332893      23.03192022
F        6.74451675       3.49333215      23.03192022
C        5.66636127       1.84867182      24.31340885
H        6.54819075       1.20798721      24.31340885
H        4.78453370       1.20798458      24.31340885
C        5.66636003       2.68088026      25.59489747
F        4.58820088       3.49332893      25.59489747
F        6.74451675       3.49333215      25.59489747
C        5.66636127       1.84867182      26.87638610
H        6.54819075       1.20798721      26.87638610
H        4.78453370       1.20798458      26.87638610
C        5.66636003       2.68088026      28.15787473
F        4.58820088       3.49332893      28.15787473
F        6.74451675       3.49333215      28.15787473
C        5.66636127       1.84867182      29.43936336
H        6.54819075       1.20798721      29.43936336
H        4.78453370       1.20798458      29.43936336
C        5.66636003       2.68088026      30.72085199
F        4.58820088       3.49332893      30.72085199
F        6.74451675       3.49333215      30.72085199
C        5.66636127       1.84867182      32.00234061
H        6.54819075       1.20798721      32.00234061
H        4.78453370       1.20798458      32.00234061
C        5.66636003       2.68088026      33.28382924
F        4.58820088       3.49332893      33.28382924
F        6.74451675       3.49333215      33.28382924
C        5.66636127       1.84867182      34.56531787
H        6.54819075       1.20798721      34.56531787
H        4.78453370       1.20798458      34.56531787
C        5.66636003       2.68088026      35.84680650
C        4.46220526       3.52403583      35.84680650
N        3.51198790       4.18938307      35.84680650
C        6.87051227       3.52403942      35.84680650
N        7.82072765       4.18938951      35.84680650
C        5.66636127       1.84867182      37.12829512
H        6.54819075       1.20798721      37.12829512
H        4.78453370       1.20798458      37.12829512
C        5.66636003       2.68088026      38.40978375
F        4.58820088       3.49332893      38.40978375
F        6.74451675       3.49333215      38.40978375
C        5.66636127       1.84867182      39.69127238
H        6.54819075       1.20798721      39.69127238
H        4.78453370       1.20798458      39.69127238
C        5.66636003       2.68088026      40.97276101
F        4.58820088       3.49332893      40.97276101
F        6.74451675       3.49333215      40.97276101
C        5.66636127       1.84867182      42.25424964
H        6.54819075       1.20798721      42.25424964
H        4.78453370       1.20798458      42.25424964
C        5.66636003       2.68088026      43.53573826
F        4.58820088       3.49332893      43.53573826
F        6.74451675       3.49333215      43.53573826
C        5.66636127       1.84867182      44.81722689
H        6.54819075       1.20798721      44.81722689
H        4.78453370       1.20798458      44.81722689
C        5.66636003       2.68088026      46.09871552
F        4.58820088       3.49332893      46.09871552
F        6.74451675       3.49333215      46.09871552
C        5.66636127       1.84867182      47.38020415
H        6.54819075       1.20798721      47.38020415
H        4.78453370       1.20798458      47.38020415
C        5.66636003       2.68088026      48.66169277
F        4.58820088       3.49332893      48.66169277
F        6.74451675       3.49333215      48.66169277
C       -0.00000078       5.27131762      15.37786353
H       -0.88183026       5.91200223      15.37786353
H        0.88182678       5.91200486      15.37786353
C        0.00000046       4.43910918      16.65935216
F        1.07815961       3.62666050      16.65935216
F       -1.07815627       3.62665728      16.65935216
C       -0.00000078       5.27131762      17.94084079
H       -0.88183026       5.91200223      17.94084079
H        0.88182678       5.91200486      17.94084079
C        0.00000046       4.43910918      19.22232942
F        1.07815961       3.62666050      19.22232942
F       -1.07815627       3.62665728      19.22232942
C       -0.00000078       5.27131762      20.50381805
H       -0.88183026       5.91200223      20.50381805
H        0.88182678       5.91200486      20.50381805
C        0.00000046       4.43910918      21.78530667
F        1.07815961       3.62666050      21.78530667
F       -1.07815627       3.62665728      21.78530667
C       -0.00000078       5.27131762      23.06679530
H       -0.88183026       5.91200223      23.06679530
H        0.88182678       5.91200486      23.06679530
C        0.00000046       4.43910918      24.34828393
F        1.07815961       3.62666050      24.34828393
F       -1.07815627       3.62665728      24.34828393
C       -0.00000078       5.27131762      25.62977256
H       -0.88183026       5.91200223      25.62977256
H        0.88182678       5.91200486      25.62977256
C        0.00000046       4.43910918      26.91126118
F        1.07815961       3.62666050      26.91126118
F       -1.07815627       3.62665728      26.91126118
C       -0.00000078       5.27131762      28.19274981
H       -0.88183026       5.91200223      28.19274981
H        0.88182678       5.91200486      28.19274981
C        0.00000046       4.43910918      29.47423844
F        1.07815961       3.62666050      29.47423844
F       -1.07815627       3.62665728      29.47423844
C       -0.00000078       5.27131762      30.75572707
H       -0.88183026       5.91200223      30.75572707
H        0.88182678       5.91200486      30.75572707
C        0.00000046       4.43910918      32.03721570
C        1.20415522       3.59595361      32.03721570
N        2.15437259       2.93060636      32.03721570
C       -1.20415179       3.59595002      32.03721570
N       -2.15436717       2.93059993      32.03721570
C       -0.00000078       5.27131762      33.31870432
H       -0.88183026       5.91200223      33.31870432
H        0.88182678       5.91200486      33.31870432
C        0.00000046       4.43910918      34.60019295
F        1.07815961       3.62666050      34.60019295
F       -1.07815627       3.62665728      34.60019295
C       -0.00000078       5.27131762      35.88168158
H       -0.88183026       5.91200223      35.88168158
H        0.88182678       5.91200486      35.88168158
C        0.00000046       4.43910918      37.16317021
F        1.07815961       3.62666050      37.16317021
F       -1.07815627       3.62665728      37.16317021
C       -0.00000078       5.27131762      38.44465883
H       -0.88183026       5.91200223      38.44465883
H        0.88182678       5.91200486      38.44465883
C        0.00000046       4.43910918      39.72614746
F        1.07815961       3.62666050      39.72614746
F       -1.07815627       3.62665728      39.72614746
C       -0.00000078       5.27131762      41.00763609
H       -0.88183026       5.91200223      41.00763609
H        0.88182678       5.91200486      41.00763609
C        0.00000046       4.43910918      42.28912472
F        1.07815961       3.62666050      42.28912472
F       -1.07815627       3.62665728      42.28912472
C       -0.00000078       5.27131762      43.57061335
H       -0.88183026       5.91200223      43.57061335
H        0.88182678       5.91200486      43.57061335
C        0.00000046       4.43910918      44.85210197
F        1.07815961       3.62666050      44.85210197
F       -1.07815627       3.62665728      44.85210197
C        5.66636127       6.59533144      34.56531787
H        6.54819075       5.95464683      34.56531787
H        4.78453370       5.95464420      34.56531787
C        5.66636003       7.42753989      35.84680650
F        4.58820088       8.23998856      35.84680650
F        6.74451675       8.23999178      35.84680650
C        5.66636127       6.59533144      37.12829512
H        6.54819075       5.95464683      37.12829512
H        4.78453370       5.95464420      37.12829512
C        5.66636003       7.42753989      38.40978375
F        4.58820088       8.23998856      38.40978375
F        6.74451675       8.23999178      38.40978375
C        5.66636127       6.59533144      39.69127238
H        6.54819075       5.95464683      39.69127238
H        4.78453370       5.95464420      39.69127238
C        5.66636003       7.42753989      40.97276101
F        4.58820088       8.23998856      40.97276101
F        6.74451675       8.23999178      40.97276101
C        5.66636127       6.59533144      42.25424964
H        6.54819075       5.95464683      42.25424964
H        4.78453370       5.95464420      42.25424964
C        5.66636003       7.42753989      43.53573826
F        4.58820088       8.23998856      43.53573826
F        6.74451675       8.23999178      43.53573826
C        5.66636127       6.59533144      44.81722689
H        6.54819075       5.95464683      44.81722689
H        4.78453370       5.95464420      44.81722689
C        5.66636003       7.42753989      46.09871552
F        4.58820088       8.23998856      46.09871552
F        6.74451675       8.23999178      46.09871552
C        5.66636127       6.59533144      47.38020415
H        6.54819075       5.95464683      47.38020415
H        4.78453370       5.95464420      47.38020415
C        5.66636003       7.42753989      48.66169277
F        4.58820088       8.23998856      48.66169277
F        6.74451675       8.23999178      48.66169277
C        5.66636127       6.59533144      49.94318140
H        6.54819075       5.95464683      49.94318140
H        4.78453370       5.95464420      49.94318140
C        5.66636003       7.42753989      51.22467003
C        4.46220526       8.27069545      51.22467003
N        3.51198790       8.93604270      51.22467003
C        6.87051227       8.27069905      51.22467003
N        7.82072765       8.93604913      51.22467003
C        5.66636127       6.59533144      52.50615866
H        6.54819075       5.95464683      52.50615866
H        4.78453370       5.95464420      52.50615866
C        5.66636003       7.42753989      53.78764729
F        4.58820088       8.23998856      53.78764729
F        6.74451675       8.23999178      53.78764729
C        5.66636127       6.59533144      55.06913591
H        6.54819075       5.95464683      55.06913591
H        4.78453370       5.95464420      55.06913591
C        5.66636003       7.42753989      56.35062454
F        4.58820088       8.23998856      56.35062454
F        6.74451675       8.23999178      56.35062454
C        5.66636127       6.59533144      57.63211317
H        6.54819075       5.95464683      57.63211317
H        4.78453370       5.95464420      57.63211317
C        5.66636003       7.42753989      58.91360180
F        4.58820088       8.23998856      58.91360180
F        6.74451675       8.23999178      58.91360180
C        5.66636127       6.59533144      60.19509043
H        6.54819075       5.95464683      60.19509043
H        4.78453370       5.95464420      60.19509043
C        5.66636003       7.42753989      61.47657905
F        4.58820088       8.23998856      61.47657905
F        6.74451675       8.23999178      61.47657905
C        5.66636127       6.59533144      62.75806768
H        6.54819075       5.95464683      62.75806768
H        4.78453370       5.95464420      62.75806768
C        5.66636003       7.42753989      64.03955631
F        4.58820088       8.23998856      64.03955631
F        6.74451675       8.23999178      64.03955631
C       11.33272019       0.52465800       0.00000000
H       10.45089071       1.16534260       0.00000000
H       12.21454776       1.16534524       0.00000000
C       11.33272143      -0.30755045       1.28148863
F       12.41088058      -1.11999912       1.28148863
F       10.25456471      -1.12000234       1.28148863
C       11.33272019       0.52465800       2.56297726
H       10.45089071       1.16534260       2.56297726
H       12.21454776       1.16534524       2.56297726
C       11.33272143      -0.30755045       3.84446588
F       12.41088058      -1.11999912       3.84446588
F       10.25456471      -1.12000234       3.84446588
C       11.33272019       0.52465800       5.12595451
H       10.45089071       1.16534260       5.12595451
H       12.21454776       1.16534524       5.12595451
C       11.33272143      -0.30755045       6.40744314
F       12.41088058      -1.11999912       6.40744314
F       10.25456471      -1.12000234       6.40744314
C       11.33272019       0.52465800       7.68893177
H       10.45089071       1.16534260       7.68893177
H       12.21454776       1.16534524       7.68893177
C       11.33272143      -0.30755045       8.97042039
F       12.41088058      -1.11999912       8.97042039
F       10.25456471      -1.12000234       8.97042039
C       11.33272019       0.52465800      10.25190902
H       10.45089071       1.16534260      10.25190902
H       12.21454776       1.16534524      10.25190902
C       11.33272143      -0.30755045      11.53339765
F       12.41088058      -1.11999912      11.53339765
F       10.25456471      -1.12000234      11.53339765
C       11.33272019       0.52465800      12.81488628
H       10.45089071       1.16534260      12.81488628
H       12.21454776       1.16534524      12.81488628
C       11.33272143      -0.30755045      14.09637491
F       12.41088058      -1.11999912      14.09637491
F       10.25456471      -1.12000234      14.09637491
C       11.33272019       0.52465800      15.37786353
H       10.45089071       1.16534260      15.37786353
H       12.21454776       1.16534524      15.37786353
C       11.33272143      -0.30755045      16.65935216
C       12.53687620      -1.15070601      16.65935216
N       13.48709356      -1.81605326      16.65935216
C       10.12856919      -1.15070961      16.65935216
N        9.17835381      -1.81605969      16.65935216
C       11.33272019       0.52465800      17.94084079
H       10.45089071       1.16534260      17.94084079
H       12.21454776       1.16534524      17.94084079
C       11.33272143      -0.30755045      19.22232942
F       12.41088058      -1.11999912      19.22232942
F       10.25456471      -1.12000234      19.22232942
C       11.33272019       0.52465800      20.50381805
H       10.45089071       1.16534260      20.50381805
H       12.21454776       1.16534524      20.50381805
C       11.33272143      -0.30755045      21.78530667
F       12.41088058      -1.11999912      21.78530667
F       10.25456471      -1.12000234      21.78530667
C       11.33272019       0.52465800      23.06679530
H       10.45089071       1.16534260      23.06679530
H       12.21454776       1.16534524      23.06679530
C       11.33272143      -0.30755045      24.34828393
F       12.41088058      -1.11999912      24.34828393
F       10.25456471      -1.12000234      24.34828393
C       11.33272019       0.52465800      25.62977256
H       10.45089071       1.16534260      25.62977256
H       12.21454776       1.16534524      25.62977256
C       11.33272143      -0.30755045      26.91126118
F       12.41088058      -1.11999912      26.91126118
F       10.25456471      -1.12000234      26.91126118
C       11.33272019       0.52465800      28.19274981
H       10.45089071       1.16534260      28.19274981
H       12.21454776       1.16534524      28.19274981
C       11.33272143      -0.30755045      29.47423844
F       12.41088058      -1.11999912      29.47423844
F       10.25456471      -1.12000234      29.47423844
C       16.99908224       1.84867182      19.18745433
H       17.88091172       1.20798721      19.18745433
H       16.11725468       1.20798458      19.18745433
C       16.99908100       2.68088026      20.46894296
F       15.92092185       3.49332893      20.46894296
F       18.07723773       3.49333215      20.46894296
C       16.99908224       1.84867182      21.75043159
H       17.88091172       1.20798721      21.75043159
H       16.11725468       1.20798458      21.75043159
C       16.99908100       2.68088026      23.03192022
F       15.92092185       3.49332893      23.03192022
F       18.07723773       3.49333215      23.03192022
C       16.99908224       1.84867182      24.31340885
H       17.88091172       1.20798721      24.31340885
H       16.11725468       1.20798458      24.31340885
C       16.99908100       2.68088026      25.59489747
F       15.92092185       3.49332893      25.59489747
F       18.07723773       3.49333215      25.59489747
C       16.99908224       1.84867182      26.87638610
H       17.88091172       1.20798721      26.87638610
H       16.11725468       1.20798458      26.87638610
C       16.99908100       2.68088026      28.15787473
F       15.92092185       3.49332893      28.15787473
F       18.07723773       3.49333215      28.15787473
C       16.99908224       1.84867182      29.43936336
H       17.88091172       1.20798721      29.43936336
H       16.11725468       1.20798458      29.43936336
C       16.99908100       2.68088026      30.72085199
F       15.92092185       3.49332893      30.72085199
F       18.07723773       3.49333215      30.72085199
C       16.99908224       1.84867182      32.00234061
H       17.88091172       1.20798721      32.00234061
H       16.11725468       1.20798458      32.00234061
C       16.99908100       2.68088026      33.28382924
F       15.92092185       3.49332893      33.28382924
F       18.07723773       3.49333215      33.28382924
C       16.99908224       1.84867182      34.56531787
H       17.88091172       1.20798721      34.56531787
H       16.11725468       1.20798458      34.56531787
C       16.99908100       2.68088026      35.84680650
C       15.79492624       3.52403583      35.84680650
N       14.84470887       4.18938307      35.84680650
C       18.20323325       3.52403942      35.84680650
N       19.15344863       4.18938951      35.84680650
C       16.99908224       1.84867182      37.12829512
H       17.88091172       1.20798721      37.12829512
H       16.11725468       1.20798458      37.12829512
C       16.99908100       2.68088026      38.40978375
F       15.92092185       3.49332893      38.40978375
F       18.07723773       3.49333215      38.40978375
C       16.99908224       1.84867182      39.69127238
H       17.88091172       1.20798721      39.69127238
H       16.11725468       1.20798458      39.69127238
C       16.99908100       2.68088026      40.97276101
F       15.92092185       3.49332893      40.97276101
F       18.07723773       3.49333215      40.97276101
C       16.99908224       1.84867182      42.25424964
H       17.88091172       1.20798721      42.25424964
H       16.11725468       1.20798458      42.25424964
C       16.99908100       2.68088026      43.53573826
F       15.92092185       3.49332893      43.53573826
F       18.07723773       3.49333215      43.53573826
C       16.99908224       1.84867182      44.81722689
H       17.88091172       1.20798721      44.81722689
H       16.11725468       1.20798458      44.81722689
C       16.99908100       2.68088026      46.09871552
F       15.92092185       3.49332893      46.09871552
F       18.07723773       3.49333215      46.09871552
C       16.99908224       1.84867182      47.38020415
H       17.88091172       1.20798721      47.38020415
H       16.11725468       1.20798458      47.38020415
C       16.99908100       2.68088026      48.66169277
F       15.92092185       3.49332893      48.66169277
F       18.07723773       3.49333215      48.66169277
C       11.33272019       5.27131762      15.37786353
H       10.45089071       5.91200223      15.37786353
H       12.21454776       5.91200486      15.37786353
C       11.33272143       4.43910918      16.65935216
F       12.41088058       3.62666050      16.65935216
F       10.25456471       3.62665728      16.65935216
C       11.33272019       5.27131762      17.94084079
H       10.45089071       5.91200223      17.94084079
H       12.21454776       5.91200486      17.94084079
C       11.33272143       4.43910918      19.22232942
F       12.41088058       3.62666050      19.22232942
F       10.25456471       3.62665728      19.22232942
C       11.33272019       5.27131762      20.50381805
H       10.45089071       5.91200223      20.50381805
H       12.21454776       5.91200486      20.50381805
C       11.33272143       4.43910918      21.78530667
F       12.41088058       3.62666050      21.78530667
F       10.25456471       3.62665728      21.78530667
C       11.33272019       5.27131762      23.06679530
H       10.45089071       5.91200223      23.06679530
H       12.21454776       5.91200486      23.06679530
C       11.33272143       4.43910918      24.34828393
F       12.41088058       3.62666050      24.34828393
F       10.25456471       3.62665728      24.34828393
C       11.33272019       5.27131762      25.62977256
H       10.45089071       5.91200223      25.62977256
H       12.21454776       5.91200486      25.62977256
C       11.33272143       4.43910918      26.91126118
F       12.41088058       3.62666050      26.91126118
F       10.25456471       3.62665728      26.91126118
C       11.33272019       5.27131762      28.19274981
H       10.45089071       5.91200223      28.19274981
H       12.21454776       5.91200486      28.19274981
C       11.33272143       4.43910918      29.47423844
F       12.41088058       3.62666050      29.47423844
F       10.25456471       3.62665728      29.47423844
C       11.33272019       5.27131762      30.75572707
H       10.45089071       5.91200223      30.75572707
H       12.21454776       5.91200486      30.75572707
C       11.33272143       4.43910918      32.03721570
C       12.53687620       3.59595361      32.03721570
N       13.48709356       2.93060636      32.03721570
C       10.12856919       3.59595002      32.03721570
N        9.17835381       2.93059993      32.03721570
C       11.33272019       5.27131762      33.31870432
H       10.45089071       5.91200223      33.31870432
H       12.21454776       5.91200486      33.31870432
C       11.33272143       4.43910918      34.60019295
F       12.41088058       3.62666050      34.60019295
F       10.25456471       3.62665728      34.60019295
C       11.33272019       5.27131762      35.88168158
H       10.45089071       5.91200223      35.88168158
H       12.21454776       5.91200486      35.88168158
C       11.33272143       4.43910918      37.16317021
F       12.41088058       3.62666050      37.16317021
F       10.25456471       3.62665728      37.16317021
C       11.33272019       5.27131762      38.44465883
H       10.45089071       5.91200223      38.44465883
H       12.21454776       5.91200486      38.44465883
C       11.33272143       4.43910918      39.72614746
F       12.41088058       3.62666050      39.72614746
F       10.25456471       3.62665728      39.72614746
C       11.33272019       5.27131762      41.00763609
H       10.45089071       5.91200223      41.00763609
H       12.21454776       5.91200486      41.00763609
C       11.33272143       4.43910918      42.28912472
F       12.41088058       3.62666050      42.28912472
F       10.25456471       3.62665728      42.28912472
C       11.33272019       5.27131762      43.57061335
H       10.45089071       5.91200223      43.57061335
H       12.21454776       5.91200486      43.57061335
C       11.33272143       4.43910918      44.85210197
F       12.41088058       3.62666050      44.85210197
F       10.25456471       3.62665728      44.85210197
C       16.99908224       6.59533144      34.56531787
H       17.88091172       5.95464683      34.56531787
H       16.11725468       5.95464420      34.56531787
C       16.99908100       7.42753989      35.84680650
F       15.92092185       8.23998856      35.84680650
F       18.07723773       8.23999178      35.84680650
C       16.99908224       6.59533144      37.12829512
H       17.88091172       5.95464683      37.12829512
H       16.11725468       5.95464420      37.12829512
C       16.99908100       7.42753989      38.40978375
F       15.92092185       8.23998856      38.40978375
F       18.07723773       8.23999178      38.40978375
C       16.99908224       6.59533144      39.69127238
H       17.88091172       5.95464683      39.69127238
H       16.11725468       5.95464420      39.69127238
C       16.99908100       7.42753989      40.97276101
F       15.92092185       8.23998856      40.97276101
F       18.07723773       8.23999178      40.97276101
C       16.99908224       6.59533144      42.25424964
H       17.88091172       5.95464683      42.25424964
H       16.11725468       5.95464420      42.25424964
C       16.99908100       7.42753989      43.53573826
F       15.92092185       8.23998856      43.53573826
F       18.07723773       8.23999178      43.53573826
C       16.99908224       6.59533144      44.81722689
H       17.88091172       5.95464683      44.81722689
H       16.11725468       5.95464420      44.81722689
C       16.99908100       7.42753989      46.09871552
F       15.92092185       8.23998856      46.09871552
F       18.07723773       8.23999178      46.09871552
C       16.99908224       6.59533144      47.38020415
H       17.88091172       5.95464683      47.38020415
H       16.11725468       5.95464420      47.38020415
C       16.99908100       7.42753989      48.66169277
F       15.92092185       8.23998856      48.66169277
F       18.07723773       8.23999178      48.66169277
C       16.99908224       6.59533144      49.94318140
H       17.88091172       5.95464683      49.94318140
H       16.11725468       5.95464420      49.94318140
C       16.99908100       7.42753989      51.22467003
C       15.79492624       8.27069545      51.22467003
N       14.84470887       8.93604270      51.22467003
C       18.20323325       8.27069905      51.22467003
N       19.15344863       8.93604913      51.22467003
C       16.99908224       6.59533144      52.50615866
H       17.88091172       5.95464683      52.50615866
H       16.11725468       5.95464420      52.50615866
C       16.99908100       7.42753989      53.78764729
F       15.92092185       8.23998856      53.78764729
F       18.07723773       8.23999178      53.78764729
C       16.99908224       6.59533144      55.06913591
H       17.88091172       5.95464683      55.06913591
H       16.11725468       5.95464420      55.06913591
C       16.99908100       7.42753989      56.35062454
F       15.92092185       8.23998856      56.35062454
F       18.07723773       8.23999178      56.35062454
C       16.99908224       6.59533144      57.63211317
H       17.88091172       5.95464683      57.63211317
H       16.11725468       5.95464420      57.63211317
C       16.99908100       7.42753989      58.91360180
F       15.92092185       8.23998856      58.91360180
F       18.07723773       8.23999178      58.91360180
C       16.99908224       6.59533144      60.19509043
H       17.88091172       5.95464683      60.19509043
H       16.11725468       5.95464420      60.19509043
C       16.99908100       7.42753989      61.47657905
F       15.92092185       8.23998856      61.47657905
F       18.07723773       8.23999178      61.47657905
C       16.99908224       6.59533144      62.75806768
H       17.88091172       5.95464683      62.75806768
H       16.11725468       5.95464420      62.75806768
C       16.99908100       7.42753989      64.03955631
F       15.92092185       8.23998856      64.03955631
F       18.07723773       8.23999178      64.03955631
