592
Lattice="20.95117812 0.00000000 0.00000000 0.00000000 9.60798481 0.00000000 0.00000000 0.00000000 30.75572707" Properties=species:S:1:pos:R:3 pbc="T T T" polyfind_label="polar staggered-spread all-trans 11VDF:1VDCN" stagger_monomers="0 3 6 9 1 4 7 10" energy_per_monomer_kcal_mol=-4.494356 density_g_cm3=1.678912 min_interchain_distance_A=2.5643
C        0.00033400       0.52465789       0.00000000
H       -0.88108648       1.16590506       0.00000000
H        0.88257021       1.16478231       0.00000000
C       -0.00019579      -0.30755039       1.28148863
F        1.07744473      -1.12068686       1.28148863
F       -1.07887072      -1.11931415       1.28148863
C        0.00033400       0.52465789       2.56297726
H       -0.88108648       1.16590506       2.56297726
H        0.88257021       1.16478231       2.56297726
C       -0.00019579      -0.30755039       3.84446588
F        1.07744473      -1.12068686       3.84446588
F       -1.07887072      -1.11931415       3.84446588
C        0.00033400       0.52465789       5.12595451
H       -0.88108648       1.16590506       5.12595451
H        0.88257021       1.16478231       5.12595451
C       -0.00019579      -0.30755039       6.40744314
F        1.07744473      -1.12068686       6.40744314
F       -1.07887072      -1.11931415       6.40744314
C        0.00033400       0.52465789       7.68893177
H       -0.88108648       1.16590506       7.68893177
H        0.88257021       1.16478231       7.68893177
C       -0.00019579      -0.30755039       8.97042039
F        1.07744473      -1.12068686       8.97042039
F       -1.07887072      -1.11931415       8.97042039
C        0.00033400       0.52465789      10.25190902
H       -0.88108648       1.16590506      10.25190902
H        0.88257021       1.16478231      10.25190902
C       -0.00019579      -0.30755039      11.53339765
F        1.07744473      -1.12068686      11.53339765
F       -1.07887072      -1.11931415      11.53339765
C        0.00033400       0.52465789      12.81488628
H       -0.88108648       1.16590506      12.81488628
H        0.88257021       1.16478231      12.81488628
C       -0.00019579      -0.30755039      14.09637491
F        1.07744473      -1.12068686      14.09637491
F       -1.07887072      -1.11931415      14.09637491
C        0.00033400       0.52465789      15.37786353
H       -0.88108648       1.16590506      15.37786353
H        0.88257021       1.16478231      15.37786353
C       -0.00019579      -0.30755039      16.65935216
C        1.20342072      -1.15147414      16.65935216
N        2.15321333      -1.81742759      16.65935216
C       -1.20488580      -1.14994101      16.65935216
N       -2.15552555      -1.81468463      16.65935216
C        0.00033400       0.52465789      17.94084079
H       -0.88108648       1.16590506      17.94084079
H        0.88257021       1.16478231      17.94084079
C       -0.00019579      -0.30755039      19.22232942
F        1.07744473      -1.12068686      19.22232942
F       -1.07887072      -1.11931415      19.22232942
C        0.00033400       0.52465789      20.50381805
H       -0.88108648       1.16590506      20.50381805
H        0.88257021       1.16478231      20.50381805
C       -0.00019579      -0.30755039      21.78530667
F        1.07744473      -1.12068686      21.78530667
F       -1.07887072      -1.11931415      21.78530667
C        0.00033400       0.52465789      23.06679530
H       -0.88108648       1.16590506      23.06679530
H        0.88257021       1.16478231      23.06679530
C       -0.00019579      -0.30755039      24.34828393
F        1.07744473      -1.12068686      24.34828393
F       -1.07887072      -1.11931415      24.34828393
C        0.00033400       0.52465789      25.62977256
H       -0.88108648       1.16590506      25.62977256
H        0.88257021       1.16478231      25.62977256
C       -0.00019579      -0.30755039      26.91126118
F        1.07744473      -1.12068686      26.91126118
F       -1.07887072      -1.11931415      26.91126118
C        0.00033400       0.52465789      28.19274981
H       -0.88108648       1.16590506      28.19274981
H        0.88257021       1.16478231      28.19274981
C       -0.00019579      -0.30755039      29.47423844
F        1.07744473      -1.12068686      29.47423844
F       -1.07887072      -1.11931415      29.47423844
C        5.23779815       2.92665420      10.26344649
H        4.35597404       3.56734620      10.26344649
H        6.11963109       3.56733404      10.26344649
C        5.23779241       2.09444575      11.54493511
F        6.31594474       1.28198803      11.54493511
F        4.15962887       1.28200291      11.54493511
C        5.23779815       2.92665420      12.82642374
H        4.35597404       3.56734620      12.82642374
H        6.11963109       3.56733404      12.82642374
C        5.23779241       2.09444575      14.10791237
F        6.31594474       1.28198803      14.10791237
F        4.15962887       1.28200291      14.10791237
C        5.23779815       2.92665420      15.38940100
H        4.35597404       3.56734620      15.38940100
H        6.11963109       3.56733404      15.38940100
C        5.23779241       2.09444575      16.67088962
F        6.31594474       1.28198803      16.67088962
F        4.15962887       1.28200291      16.67088962
C        5.23779815       2.92665420      17.95237825
H        4.35597404       3.56734620      17.95237825
H        6.11963109       3.56733404      17.95237825
C        5.23779241       2.09444575      19.23386688
F        6.31594474       1.28198803      19.23386688
F        4.15962887       1.28200291      19.23386688
C        5.23779815       2.92665420      20.51535551
H        4.35597404       3.56734620      20.51535551
H        6.11963109       3.56733404      20.51535551
C        5.23779241       2.09444575      21.79684414
F        6.31594474       1.28198803      21.79684414
F        4.15962887       1.28200291      21.79684414
C        5.23779815       2.92665420      23.07833276
H        4.35597404       3.56734620      23.07833276
H        6.11963109       3.56733404      23.07833276
C        5.23779241       2.09444575      24.35982139
F        6.31594474       1.28198803      24.35982139
F        4.15962887       1.28200291      24.35982139
C        5.23779815       2.92665420      25.64131002
H        4.35597404       3.56734620      25.64131002
H        6.11963109       3.56733404      25.64131002
C        5.23779241       2.09444575      26.92279865
C        6.44194010       1.25128008      26.92279865
N        7.39215188       0.58592486      26.92279865
C        4.03363309       1.25129670      26.92279865
N        3.08341213       0.58595458      26.92279865
C        5.23779815       2.92665420      28.20428727
H        4.35597404       3.56734620      28.20428727
H        6.11963109       3.56733404      28.20428727
C        5.23779241       2.09444575      29.48577590
F        6.31594474       1.28198803      29.48577590
F        4.15962887       1.28200291      29.48577590
C        5.23779815       2.92665420      30.76726453
H        4.35597404       3.56734620      30.76726453
H        6.11963109       3.56733404      30.76726453
C        5.23779241       2.09444575      32.04875316
F        6.31594474       1.28198803      32.04875316
F        4.15962887       1.28200291      32.04875316
C        5.23779815       2.92665420      33.33024179
H        4.35597404       3.56734620      33.33024179
H        6.11963109       3.56733404      33.33024179
C        5.23779241       2.09444575      34.61173041
F        6.31594474       1.28198803      34.61173041
F        4.15962887       1.28200291      34.61173041
C        5.23779815       2.92665420      35.89321904
H        4.35597404       3.56734620      35.89321904
H        6.11963109       3.56733404      35.89321904
C        5.23779241       2.09444575      37.17470767
F        6.31594474       1.28198803      37.17470767
F        4.15962887       1.28200291      37.17470767
C        5.23779815       2.92665420      38.45619630
H        4.35597404       3.56734620      38.45619630
H        6.11963109       3.56733404      38.45619630
C        5.23779241       2.09444575      39.73768493
F        6.31594474       1.28198803      39.73768493
F        4.15962887       1.28200291      39.73768493
C        0.00033400       5.32865029      15.37786353
H       -0.88108648       5.96989746      15.37786353
H        0.88257021       5.96877471      15.37786353
C       -0.00019579       4.49644202      16.65935216
F        1.07744473       3.68330554      16.65935216
F       -1.07887072       3.68467826      16.65935216
C        0.00033400       5.32865029      17.94084079
H       -0.88108648       5.96989746      17.94084079
H        0.88257021       5.96877471      17.94084079
C       -0.00019579       4.49644202      19.22232942
F        1.07744473       3.68330554      19.22232942
F       -1.07887072       3.68467826      19.22232942
C        0.00033400       5.32865029      20.50381805
H       -0.88108648       5.96989746      20.50381805
H        0.88257021       5.96877471      20.50381805
C       -0.00019579       4.49644202      21.78530667
F        1.07744473       3.68330554      21.78530667
F       -1.07887072       3.68467826      21.78530667
C        0.00033400       5.32865029      23.06679530
H       -0.88108648       5.96989746      23.06679530
H        0.88257021       5.96877471      23.06679530
C       -0.00019579       4.49644202      24.34828393
F        1.07744473       3.68330554      24.34828393
F       -1.07887072       3.68467826      24.34828393
C        0.00033400       5.32865029      25.62977256
H       -0.88108648       5.96989746      25.62977256
H        0.88257021       5.96877471      25.62977256
C       -0.00019579       4.49644202      26.91126118
F        1.07744473       3.68330554      26.91126118
F       -1.07887072       3.68467826      26.91126118
C        0.00033400       5.32865029      28.19274981
H       -0.88108648       5.96989746      28.19274981
H        0.88257021       5.96877471      28.19274981
C       -0.00019579       4.49644202      29.47423844
F        1.07744473       3.68330554      29.47423844
F       -1.07887072       3.68467826      29.47423844
C        0.00033400       5.32865029      30.75572707
H       -0.88108648       5.96989746      30.75572707
H        0.88257021       5.96877471      30.75572707
C       -0.00019579       4.49644202      32.03721570
C        1.20342072       3.65251826      32.03721570
N        2.15321333       2.98656482      32.03721570
C       -1.20488580       3.65405139      32.03721570
N       -2.15552555       2.98930777      32.03721570
C        0.00033400       5.32865029      33.31870432
H       -0.88108648       5.96989746      33.31870432
H        0.88257021       5.96877471      33.31870432
C       -0.00019579       4.49644202      34.60019295
F        1.07744473       3.68330554      34.60019295
F       -1.07887072       3.68467826      34.60019295
C        0.00033400       5.32865029      35.88168158
H       -0.88108648       5.96989746      35.88168158
H        0.88257021       5.96877471      35.88168158
C       -0.00019579       4.49644202      37.16317021
F        1.07744473       3.68330554      37.16317021
F       -1.07887072       3.68467826      37.16317021
C        0.00033400       5.32865029      38.44465883
H       -0.88108648       5.96989746      38.44465883
H        0.88257021       5.96877471      38.44465883
C       -0.00019579       4.49644202      39.72614746
F        1.07744473       3.68330554      39.72614746
F       -1.07887072       3.68467826      39.72614746
C        0.00033400       5.32865029      41.00763609
H       -0.88108648       5.96989746      41.00763609
H        0.88257021       5.96877471      41.00763609
C       -0.00019579       4.49644202      42.28912472
F        1.07744473       3.68330554      42.28912472
F       -1.07887072       3.68467826      42.28912472
C        0.00033400       5.32865029      43.57061335
H       -0.88108648       5.96989746      43.57061335
H        0.88257021       5.96877471      43.57061335
C       -0.00019579       4.49644202      44.85210197
F        1.07744473       3.68330554      44.85210197
F       -1.07887072       3.68467826      44.85210197
C        5.23779815       7.73064660      25.64131002
H        4.35597404       8.37133861      25.64131002
H        6.11963109       8.37132644      25.64131002
C        5.23779241       6.89843815      26.92279865
F        6.31594474       6.08598044      26.92279865
F        4.15962887       6.08599531      26.92279865
C        5.23779815       7.73064660      28.20428727
H        4.35597404       8.37133861      28.20428727
H        6.11963109       8.37132644      28.20428727
C        5.23779241       6.89843815      29.48577590
F        6.31594474       6.08598044      29.48577590
F        4.15962887       6.08599531      29.48577590
C        5.23779815       7.73064660      30.76726453
H        4.35597404       8.37133861      30.76726453
H        6.11963109       8.37132644      30.76726453
C        5.23779241       6.89843815      32.04875316
F        6.31594474       6.08598044      32.04875316
F        4.15962887       6.08599531      32.04875316
C        5.23779815       7.73064660      33.33024179
H        4.35597404       8.37133861      33.33024179
H        6.11963109       8.37132644      33.33024179
C        5.23779241       6.89843815      34.61173041
F        6.31594474       6.08598044      34.61173041
F        4.15962887       6.08599531      34.61173041
C        5.23779815       7.73064660      35.89321904
H        4.35597404       8.37133861      35.89321904
H        6.11963109       8.37132644      35.89321904
C        5.23779241       6.89843815      37.17470767
F        6.31594474       6.08598044      37.17470767
F        4.15962887       6.08599531      37.17470767
C        5.23779815       7.73064660      38.45619630
H        4.35597404       8.37133861      38.45619630
H        6.11963109       8.37132644      38.45619630
C        5.23779241       6.89843815      39.73768493
F        6.31594474       6.08598044      39.73768493
F        4.15962887       6.08599531      39.73768493
C        5.23779815       7.73064660      41.01917355
H        4.35597404       8.37133861      41.01917355
H        6.11963109       8.37132644      41.01917355
C        5.23779241       6.89843815      42.30066218
C        6.44194010       6.05527249      42.30066218
N        7.39215188       5.38991727      42.30066218
C        4.03363309       6.05528910      42.30066218
N        3.08341213       5.38994699      42.30066218
C        5.23779815       7.73064660      43.58215081
H        4.35597404       8.37133861      43.58215081
H        6.11963109       8.37132644      43.58215081
C        5.23779241       6.89843815      44.86363944
F        6.31594474       6.08598044      44.86363944
F        4.15962887       6.08599531      44.86363944
C        5.23779815       7.73064660      46.14512806
H        4.35597404       8.37133861      46.14512806
H        6.11963109       8.37132644      46.14512806
C        5.23779241       6.89843815      47.42661669
F        6.31594474       6.08598044      47.42661669
F        4.15962887       6.08599531      47.42661669
C        5.23779815       7.73064660      48.70810532
H        4.35597404       8.37133861      48.70810532
H        6.11963109       8.37132644      48.70810532
C        5.23779241       6.89843815      49.98959395
F        6.31594474       6.08598044      49.98959395
F        4.15962887       6.08599531      49.98959395
C        5.23779815       7.73064660      51.27108258
H        4.35597404       8.37133861      51.27108258
H        6.11963109       8.37132644      51.27108258
C        5.23779241       6.89843815      52.55257120
F        6.31594474       6.08598044      52.55257120
F        4.15962887       6.08599531      52.55257120
C        5.23779815       7.73064660      53.83405983
H        4.35597404       8.37133861      53.83405983
H        6.11963109       8.37132644      53.83405983
C        5.23779241       6.89843815      55.11554846
F        6.31594474       6.08598044      55.11554846
F        4.15962887       6.08599531      55.11554846
C       10.47592306       0.52465789       2.56297726
H        9.59450258       1.16590506       2.56297726
H       11.35815927       1.16478231       2.56297726
C       10.47539327      -0.30755039       3.84446588
F       11.55303379      -1.12068686       3.84446588
F        9.39671835      -1.11931415       3.84446588
C       10.47592306       0.52465789       5.12595451
H        9.59450258       1.16590506       5.12595451
H       11.35815927       1.16478231       5.12595451
C       10.47539327      -0.30755039       6.40744314
F       11.55303379      -1.12068686       6.40744314
F        9.39671835      -1.11931415       6.40744314
C       10.47592306       0.52465789       7.68893177
H        9.59450258       1.16590506       7.68893177
H       11.35815927       1.16478231       7.68893177
C       10.47539327      -0.30755039       8.97042039
F       11.55303379      -1.12068686       8.97042039
F        9.39671835      -1.11931415       8.97042039
C       10.47592306       0.52465789      10.25190902
H        9.59450258       1.16590506      10.25190902
H       11.35815927       1.16478231      10.25190902
C       10.47539327      -0.30755039      11.53339765
F       11.55303379      -1.12068686      11.53339765
F        9.39671835      -1.11931415      11.53339765
C       10.47592306       0.52465789      12.81488628
H        9.59450258       1.16590506      12.81488628
H       11.35815927       1.16478231      12.81488628
C       10.47539327      -0.30755039      14.09637491
F       11.55303379      -1.12068686      14.09637491
F        9.39671835      -1.11931415      14.09637491
C       10.47592306       0.52465789      15.37786353
H        9.59450258       1.16590506      15.37786353
H       11.35815927       1.16478231      15.37786353
C       10.47539327      -0.30755039      16.65935216
F       11.55303379      -1.12068686      16.65935216
F        9.39671835      -1.11931415      16.65935216
C       10.47592306       0.52465789      17.94084079
H        9.59450258       1.16590506      17.94084079
H       11.35815927       1.16478231      17.94084079
C       10.47539327      -0.30755039      19.22232942
C       11.67900978      -1.15147414      19.22232942
N       12.62880239      -1.81742759      19.22232942
C        9.27070326      -1.14994101      19.22232942
N        8.32006351      -1.81468463      19.22232942
C       10.47592306       0.52465789      20.50381805
H        9.59450258       1.16590506      20.50381805
H       11.35815927       1.16478231      20.50381805
C       10.47539327      -0.30755039      21.78530667
F       11.55303379      -1.12068686      21.78530667
F        9.39671835      -1.11931415      21.78530667
C       10.47592306       0.52465789      23.06679530
H        9.59450258       1.16590506      23.06679530
H       11.35815927       1.16478231      23.06679530
C       10.47539327      -0.30755039      24.34828393
F       11.55303379      -1.12068686      24.34828393
F        9.39671835      -1.11931415      24.34828393
C       10.47592306       0.52465789      25.62977256
H        9.59450258       1.16590506      25.62977256
H       11.35815927       1.16478231      25.62977256
C       10.47539327      -0.30755039      26.91126118
F       11.55303379      -1.12068686      26.91126118
F        9.39671835      -1.11931415      26.91126118
C       10.47592306       0.52465789      28.19274981
H        9.59450258       1.16590506      28.19274981
H       11.35815927       1.16478231      28.19274981
C       10.47539327      -0.30755039      29.47423844
F       11.55303379      -1.12068686      29.47423844
F        9.39671835      -1.11931415      29.47423844
C       10.47592306       0.52465789      30.75572707
H        9.59450258       1.16590506      30.75572707
H       11.35815927       1.16478231      30.75572707
C       10.47539327      -0.30755039      32.03721570
F       11.55303379      -1.12068686      32.03721570
F        9.39671835      -1.11931415      32.03721570
C       15.71338721       2.92665420      12.82642374
H       14.83156310       3.56734620      12.82642374
H       16.59522015       3.56733404      12.82642374
C       15.71338147       2.09444575      14.10791237
F       16.79153380       1.28198803      14.10791237
F       14.63521793       1.28200291      14.10791237
C       15.71338721       2.92665420      15.38940100
H       14.83156310       3.56734620      15.38940100
H       16.59522015       3.56733404      15.38940100
C       15.71338147       2.09444575      16.67088962
F       16.79153380       1.28198803      16.67088962
F       14.63521793       1.28200291      16.67088962
C       15.71338721       2.92665420      17.95237825
H       14.83156310       3.56734620      17.95237825
H       16.59522015       3.56733404      17.95237825
C       15.71338147       2.09444575      19.23386688
F       16.79153380       1.28198803      19.23386688
F       14.63521793       1.28200291      19.23386688
C       15.71338721       2.92665420      20.51535551
H       14.83156310       3.56734620      20.51535551
H       16.59522015       3.56733404      20.51535551
C       15.71338147       2.09444575      21.79684414
F       16.79153380       1.28198803      21.79684414
F       14.63521793       1.28200291      21.79684414
C       15.71338721       2.92665420      23.07833276
H       14.83156310       3.56734620      23.07833276
H       16.59522015       3.56733404      23.07833276
C       15.71338147       2.09444575      24.35982139
F       16.79153380       1.28198803      24.35982139
F       14.63521793       1.28200291      24.35982139
C       15.71338721       2.92665420      25.64131002
H       14.83156310       3.56734620      25.64131002
H       16.59522015       3.56733404      25.64131002
C       15.71338147       2.09444575      26.92279865
F       16.79153380       1.28198803      26.92279865
F       14.63521793       1.28200291      26.92279865
C       15.71338721       2.92665420      28.20428727
H       14.83156310       3.56734620      28.20428727
H       16.59522015       3.56733404      28.20428727
C       15.71338147       2.09444575      29.48577590
C       16.91752916       1.25128008      29.48577590
N       17.86774094       0.58592486      29.48577590
C       14.50922215       1.25129670      29.48577590
N       13.55900119       0.58595458      29.48577590
C       15.71338721       2.92665420      30.76726453
H       14.83156310       3.56734620      30.76726453
H       16.59522015       3.56733404      30.76726453
C       15.71338147       2.09444575      32.04875316
F       16.79153380       1.28198803      32.04875316
F       14.63521793       1.28200291      32.04875316
C       15.71338721       2.92665420      33.33024179
H       14.83156310       3.56734620      33.33024179
H       16.59522015       3.56733404      33.33024179
C       15.71338147       2.09444575      34.61173041
F       16.79153380       1.28198803      34.61173041
F       14.63521793       1.28200291      34.61173041
C       15.71338721       2.92665420      35.89321904
H       14.83156310       3.56734620      35.89321904
H       16.59522015       3.56733404      35.89321904
C       15.71338147       2.09444575      37.17470767
F       16.79153380       1.28198803      37.17470767
F       14.63521793       1.28200291      37.17470767
C       15.71338721       2.92665420      38.45619630
H       14.83156310       3.56734620      38.45619630
H       16.59522015       3.56733404      38.45619630
C       15.71338147       2.09444575      39.73768493
F       16.79153380       1.28198803      39.73768493
F       14.63521793       1.28200291      39.73768493
C       15.71338721       2.92665420      41.01917355
H       14.83156310       3.56734620      41.01917355
H       16.59522015       3.56733404      41.01917355
C       15.71338147       2.09444575      42.30066218
F       16.79153380       1.28198803      42.30066218
F       14.63521793       1.28200291      42.30066218
C       10.47592306       5.32865029      17.94084079
H        9.59450258       5.96989746      17.94084079
H       11.35815927       5.96877471      17.94084079
C       10.47539327       4.49644202      19.22232942
F       11.55303379       3.68330554      19.22232942
F        9.39671835       3.68467826      19.22232942
C       10.47592306       5.32865029      20.50381805
H        9.59450258       5.96989746      20.50381805
H       11.35815927       5.96877471      20.50381805
C       10.47539327       4.49644202      21.78530667
F       11.55303379       3.68330554      21.78530667
F        9.39671835       3.68467826      21.78530667
C       10.47592306       5.32865029      23.06679530
H        9.59450258       5.96989746      23.06679530
H       11.35815927       5.96877471      23.06679530
C       10.47539327       4.49644202      24.34828393
F       11.55303379       3.68330554      24.34828393
F        9.39671835       3.68467826      24.34828393
C       10.47592306       5.32865029      25.62977256
H        9.59450258       5.96989746      25.62977256
H       11.35815927       5.96877471      25.62977256
C       10.47539327       4.49644202      26.91126118
F       11.55303379       3.68330554      26.91126118
F        9.39671835       3.68467826      26.91126118
C       10.47592306       5.32865029      28.19274981
H        9.59450258       5.96989746      28.19274981
H       11.35815927       5.96877471      28.19274981
C       10.47539327       4.49644202      29.47423844
F       11.55303379       3.68330554      29.47423844
F        9.39671835       3.68467826      29.47423844
C       10.47592306       5.32865029      30.75572707
H        9.59450258       5.96989746      30.75572707
H       11.35815927       5.96877471      30.75572707
C       10.47539327       4.49644202      32.03721570
F       11.55303379       3.68330554      32.03721570
F        9.39671835       3.68467826      32.03721570
C       10.47592306       5.32865029      33.31870432
H        9.59450258       5.96989746      33.31870432
H       11.35815927       5.96877471      33.31870432
C       10.47539327       4.49644202      34.60019295
C       11.67900978       3.65251826      34.60019295
N       12.62880239       2.98656482      34.60019295
C        9.27070326       3.65405139      34.60019295
N        8.32006351       2.98930777      34.60019295
C       10.47592306       5.32865029      35.88168158
H        9.59450258       5.96989746      35.88168158
H       11.35815927       5.96877471      35.88168158
C       10.47539327       4.49644202      37.16317021
F       11.55303379       3.68330554      37.16317021
F        9.39671835       3.68467826      37.16317021
C       10.47592306       5.32865029      38.44465883
H        9.59450258       5.96989746      38.44465883
H       11.35815927       5.96877471      38.44465883
C       10.47539327       4.49644202      39.72614746
F       11.55303379       3.68330554      39.72614746
F        9.39671835       3.68467826      39.72614746
C       10.47592306       5.32865029      41.00763609
H        9.59450258       5.96989746      41.00763609
H       11.35815927       5.96877471      41.00763609
C       10.47539327       4.49644202      42.28912472
F       11.55303379       3.68330554      42.28912472
F        9.39671835       3.68467826      42.28912472
C       10.47592306       5.32865029      43.57061335
H        9.59450258       5.96989746      43.57061335
H       11.35815927       5.96877471      43.57061335
C       10.47539327       4.49644202      44.85210197
F       11.55303379       3.68330554      44.85210197
F        9.39671835       3.68467826      44.85210197
C       10.47592306       5.32865029      46.13359060
H        9.59450258       5.96989746      46.13359060
H       11.35815927       5.96877471      46.13359060
C       10.47539327       4.49644202      47.41507923
F       11.55303379       3.68330554      47.41507923
F        9.39671835       3.68467826      47.41507923
C       15.71338721       7.73064660      28.20428727
H       14.83156310       8.37133861      28.20428727
H       16.59522015       8.37132644      28.20428727
C       15.71338147       6.89843815      29.48577590
F       16.79153380       6.08598044      29.48577590
F       14.63521793       6.08599531      29.48577590
C       15.71338721       7.73064660      30.76726453
H       14.83156310       8.37133861      30.76726453
H       16.59522015       8.37132644      30.76726453
C       15.71338147       6.89843815      32.04875316
F       16.79153380       6.08598044      32.04875316
F       14.63521793       6.08599531      32.04875316
C       15.71338721       7.73064660      33.33024179
H       14.83156310       8.37133861      33.33024179
H       16.59522015       8.37132644      33.33024179
C       15.71338147       6.89843815      34.61173041
F       16.79153380       6.08598044      34.61173041
F       14.63521793       6.08599531      34.61173041
C       15.71338721       7.73064660      35.89321904
H       14.83156310       8.37133861      35.89321904
H       16.59522015       8.37132644      35.89321904
C       15.71338147       6.89843815      37.17470767
F       16.79153380       6.08598044      37.17470767
F       14.63521793       6.08599531      37.17470767
C       15.71338721       7.73064660      38.45619630
H       14.83156310       8.37133861      38.45619630
H       16.59522015       8.37132644      38.45619630
C       15.71338147       6.89843815      39.73768493
F       16.79153380       6.08598044      39.73768493
F       14.63521793       6.08599531      39.73768493
C       15.71338721       7.73064660      41.01917355
H       14.83156310       8.37133861      41.01917355
H       16.59522015       8.37132644      41.01917355
C       15.71338147       6.89843815      42.30066218
F       16.79153380       6.08598044      42.30066218
F       14.63521793       6.08599531      42.30066218
C       15.71338721       7.73064660      43.58215081
H       14.83156310       8.37133861      43.58215081
H       16.59522015       8.37132644      43.58215081
C       15.71338147       6.89843815      44.86363944
C       16.91752916       6.05527249      44.86363944
N       17.86774094       5.38991727      44.86363944
C       14.50922215       6.05528910      44.86363944
N       13.55900119       5.38994699      44.86363944
C       15.71338721       7.73064660      46.14512806
H       14.83156310       8.37133861      46.14512806
H       16.59522015       8.37132644      46.14512806
C       15.71338147       6.89843815      47.42661669
F       16.79153380       6.08598044      47.42661669
F       14.63521793       6.08599531      47.42661669
C       15.71338721       7.73064660      48.70810532
H       14.83156310       8.37133861      48.70810532
H       16.59522015       8.37132644      48.70810532
C       15.71338147       6.89843815      49.98959395
F       16.79153380       6.08598044      49.98959395
F       14.63521793       6.08599531      49.98959395
C       15.71338721       7.73064660      51.27108258
H       14.83156310       8.37133861      51.27108258
H       16.59522015       8.37132644      51.27108258
C       15.71338147       6.89843815      52.55257120
F       16.79153380       6.08598044      52.55257120
F       14.63521793       6.08599531      52.55257120
C       15.71338721       7.73064660      53.83405983
H       14.83156310       8.37133861      53.83405983
H       16.59522015       8.37132644      53.83405983
C       15.71338147       6.89843815      55.11554846
F       16.79153380       6.08598044      55.11554846
F       14.63521793       6.08599531      55.11554846
C       15.71338721       7.73064660      56.39703709
H       14.83156310       8.37133861      56.39703709
H       16.59522015       8.37132644      56.39703709
C       15.71338147       6.89843815      57.67852571
F       16.79153380       6.08598044      57.67852571
F       14.63521793       6.08599531      57.67852571
