592
Lattice="22.67795937 0.00000000 0.00000000 0.00000000 9.49382377 0.00000000 0.00000000 0.00000000 30.75572707" Properties=species:S:1:pos:R:3 pbc="T T T" polyfind_label="antipolar staggered-spread all-trans 11VDF:1VDCN" stagger_monomers="0 3 6 9 1 4 7 10" energy_per_monomer_kcal_mol=-3.695666 density_g_cm3=1.569725 min_interchain_distance_A=2.5252
C        0.00007695       0.52465799       0.00000000
H       -0.88165759       1.16547325       0.00000000
H        0.88199944       1.16521457       0.00000000
C       -0.00004511      -0.30755045       1.28148863
F        1.07799365      -1.12015886       1.28148863
F       -1.07832220      -1.11984258       1.28148863
C        0.00007695       0.52465799       2.56297726
H       -0.88165759       1.16547325       2.56297726
H        0.88199944       1.16521457       2.56297726
C       -0.00004511      -0.30755045       3.84446588
F        1.07799365      -1.12015886       3.84446588
F       -1.07832220      -1.11984258       3.84446588
C        0.00007695       0.52465799       5.12595451
H       -0.88165759       1.16547325       5.12595451
H        0.88199944       1.16521457       5.12595451
C       -0.00004511      -0.30755045       6.40744314
F        1.07799365      -1.12015886       6.40744314
F       -1.07832220      -1.11984258       6.40744314
C        0.00007695       0.52465799       7.68893177
H       -0.88165759       1.16547325       7.68893177
H        0.88199944       1.16521457       7.68893177
C       -0.00004511      -0.30755045       8.97042039
F        1.07799365      -1.12015886       8.97042039
F       -1.07832220      -1.11984258       8.97042039
C        0.00007695       0.52465799      10.25190902
H       -0.88165759       1.16547325      10.25190902
H        0.88199944       1.16521457      10.25190902
C       -0.00004511      -0.30755045      11.53339765
F        1.07799365      -1.12015886      11.53339765
F       -1.07832220      -1.11984258      11.53339765
C        0.00007695       0.52465799      12.81488628
H       -0.88165759       1.16547325      12.81488628
H        0.88199944       1.16521457      12.81488628
C       -0.00004511      -0.30755045      14.09637491
F        1.07799365      -1.12015886      14.09637491
F       -1.07832220      -1.11984258      14.09637491
C        0.00007695       0.52465799      15.37786353
H       -0.88165759       1.16547325      15.37786353
H        0.88199944       1.16521457      15.37786353
C       -0.00004511      -0.30755045      16.65935216
C        1.20398471      -1.15088442      16.65935216
N        2.15410349      -1.81637245      16.65935216
C       -1.20432227      -1.15053118      16.65935216
N       -2.15463622      -1.81574047      16.65935216
C        0.00007695       0.52465799      17.94084079
H       -0.88165759       1.16547325      17.94084079
H        0.88199944       1.16521457      17.94084079
C       -0.00004511      -0.30755045      19.22232942
F        1.07799365      -1.12015886      19.22232942
F       -1.07832220      -1.11984258      19.22232942
C        0.00007695       0.52465799      20.50381805
H       -0.88165759       1.16547325      20.50381805
H        0.88199944       1.16521457      20.50381805
C       -0.00004511      -0.30755045      21.78530667
F        1.07799365      -1.12015886      21.78530667
F       -1.07832220      -1.11984258      21.78530667
C        0.00007695       0.52465799      23.06679530
H       -0.88165759       1.16547325      23.06679530
H        0.88199944       1.16521457      23.06679530
C       -0.00004511      -0.30755045      24.34828393
F        1.07799365      -1.12015886      24.34828393
F       -1.07832220      -1.11984258      24.34828393
C        0.00007695       0.52465799      25.62977256
H       -0.88165759       1.16547325      25.62977256
H        0.88199944       1.16521457      25.62977256
C       -0.00004511      -0.30755045      26.91126118
F        1.07799365      -1.12015886      26.91126118
F       -1.07832220      -1.11984258      26.91126118
C        0.00007695       0.52465799      28.19274981
H       -0.88165759       1.16547325      28.19274981
H        0.88199944       1.16521457      28.19274981
C       -0.00004511      -0.30755045      29.47423844
F        1.07799365      -1.12015886      29.47423844
F       -1.07832220      -1.11984258      29.47423844
C        5.66941289       1.84879795      21.77418036
H        6.55114743       1.20798269      21.77418036
H        4.78749040       1.20824137      21.77418036
C        5.66953495       2.68100639      23.05566899
F        4.59149619       3.49361480      23.05566899
F        6.74781204       3.49329852      23.05566899
C        5.66941289       1.84879795      24.33715762
H        6.55114743       1.20798269      24.33715762
H        4.78749040       1.20824137      24.33715762
C        5.66953495       2.68100639      25.61864624
F        4.59149619       3.49361480      25.61864624
F        6.74781204       3.49329852      25.61864624
C        5.66941289       1.84879795      26.90013487
H        6.55114743       1.20798269      26.90013487
H        4.78749040       1.20824137      26.90013487
C        5.66953495       2.68100639      28.18162350
F        4.59149619       3.49361480      28.18162350
F        6.74781204       3.49329852      28.18162350
C        5.66941289       1.84879795      29.46311213
H        6.55114743       1.20798269      29.46311213
H        4.78749040       1.20824137      29.46311213
C        5.66953495       2.68100639      30.74460075
F        4.59149619       3.49361480      30.74460075
F        6.74781204       3.49329852      30.74460075
C        5.66941289       1.84879795      32.02608938
H        6.55114743       1.20798269      32.02608938
H        4.78749040       1.20824137      32.02608938
C        5.66953495       2.68100639      33.30757801
F        4.59149619       3.49361480      33.30757801
F        6.74781204       3.49329852      33.30757801
C        5.66941289       1.84879795      34.58906664
H        6.55114743       1.20798269      34.58906664
H        4.78749040       1.20824137      34.58906664
C        5.66953495       2.68100639      35.87055527
F        4.59149619       3.49361480      35.87055527
F        6.74781204       3.49329852      35.87055527
C        5.66941289       1.84879795      37.15204389
H        6.55114743       1.20798269      37.15204389
H        4.78749040       1.20824137      37.15204389
C        5.66953495       2.68100639      38.43353252
C        4.46550513       3.52434036      38.43353252
N        3.51538636       4.18982839      38.43353252
C        6.87381211       3.52398712      38.43353252
N        7.82412606       4.18919641      38.43353252
C        5.66941289       1.84879795      39.71502115
H        6.55114743       1.20798269      39.71502115
H        4.78749040       1.20824137      39.71502115
C        5.66953495       2.68100639      40.99650978
F        4.59149619       3.49361480      40.99650978
F        6.74781204       3.49329852      40.99650978
C        5.66941289       1.84879795      42.27799840
H        6.55114743       1.20798269      42.27799840
H        4.78749040       1.20824137      42.27799840
C        5.66953495       2.68100639      43.55948703
F        4.59149619       3.49361480      43.55948703
F        6.74781204       3.49329852      43.55948703
C        5.66941289       1.84879795      44.84097566
H        6.55114743       1.20798269      44.84097566
H        4.78749040       1.20824137      44.84097566
C        5.66953495       2.68100639      46.12246429
F        4.59149619       3.49361480      46.12246429
F        6.74781204       3.49329852      46.12246429
C        5.66941289       1.84879795      47.40395292
H        6.55114743       1.20798269      47.40395292
H        4.78749040       1.20824137      47.40395292
C        5.66953495       2.68100639      48.68544154
F        4.59149619       3.49361480      48.68544154
F        6.74781204       3.49329852      48.68544154
C        5.66941289       1.84879795      49.96693017
H        6.55114743       1.20798269      49.96693017
H        4.78749040       1.20824137      49.96693017
C        5.66953495       2.68100639      51.24841880
F        4.59149619       3.49361480      51.24841880
F        6.74781204       3.49329852      51.24841880
C        0.00007695       5.27156987      15.37786353
H       -0.88165759       5.91238513      15.37786353
H        0.88199944       5.91212645      15.37786353
C       -0.00004511       4.43936144      16.65935216
F        1.07799365       3.62675303      16.65935216
F       -1.07832220       3.62706930      16.65935216
C        0.00007695       5.27156987      17.94084079
H       -0.88165759       5.91238513      17.94084079
H        0.88199944       5.91212645      17.94084079
C       -0.00004511       4.43936144      19.22232942
F        1.07799365       3.62675303      19.22232942
F       -1.07832220       3.62706930      19.22232942
C        0.00007695       5.27156987      20.50381805
H       -0.88165759       5.91238513      20.50381805
H        0.88199944       5.91212645      20.50381805
C       -0.00004511       4.43936144      21.78530667
F        1.07799365       3.62675303      21.78530667
F       -1.07832220       3.62706930      21.78530667
C        0.00007695       5.27156987      23.06679530
H       -0.88165759       5.91238513      23.06679530
H        0.88199944       5.91212645      23.06679530
C       -0.00004511       4.43936144      24.34828393
F        1.07799365       3.62675303      24.34828393
F       -1.07832220       3.62706930      24.34828393
C        0.00007695       5.27156987      25.62977256
H       -0.88165759       5.91238513      25.62977256
H        0.88199944       5.91212645      25.62977256
C       -0.00004511       4.43936144      26.91126118
F        1.07799365       3.62675303      26.91126118
F       -1.07832220       3.62706930      26.91126118
C        0.00007695       5.27156987      28.19274981
H       -0.88165759       5.91238513      28.19274981
H        0.88199944       5.91212645      28.19274981
C       -0.00004511       4.43936144      29.47423844
F        1.07799365       3.62675303      29.47423844
F       -1.07832220       3.62706930      29.47423844
C        0.00007695       5.27156987      30.75572707
H       -0.88165759       5.91238513      30.75572707
H        0.88199944       5.91212645      30.75572707
C       -0.00004511       4.43936144      32.03721570
C        1.20398471       3.59602747      32.03721570
N        2.15410349       2.93053944      32.03721570
C       -1.20432227       3.59638070      32.03721570
N       -2.15463622       2.93117142      32.03721570
C        0.00007695       5.27156987      33.31870432
H       -0.88165759       5.91238513      33.31870432
H        0.88199944       5.91212645      33.31870432
C       -0.00004511       4.43936144      34.60019295
F        1.07799365       3.62675303      34.60019295
F       -1.07832220       3.62706930      34.60019295
C        0.00007695       5.27156987      35.88168158
H       -0.88165759       5.91238513      35.88168158
H        0.88199944       5.91212645      35.88168158
C       -0.00004511       4.43936144      37.16317021
F        1.07799365       3.62675303      37.16317021
F       -1.07832220       3.62706930      37.16317021
C        0.00007695       5.27156987      38.44465883
H       -0.88165759       5.91238513      38.44465883
H        0.88199944       5.91212645      38.44465883
C       -0.00004511       4.43936144      39.72614746
F        1.07799365       3.62675303      39.72614746
F       -1.07832220       3.62706930      39.72614746
C        0.00007695       5.27156987      41.00763609
H       -0.88165759       5.91238513      41.00763609
H        0.88199944       5.91212645      41.00763609
C       -0.00004511       4.43936144      42.28912472
F        1.07799365       3.62675303      42.28912472
F       -1.07832220       3.62706930      42.28912472
C        0.00007695       5.27156987      43.57061335
H       -0.88165759       5.91238513      43.57061335
H        0.88199944       5.91212645      43.57061335
C       -0.00004511       4.43936144      44.85210197
F        1.07799365       3.62675303      44.85210197
F       -1.07832220       3.62706930      44.85210197
C        5.66941289       6.59570984      37.15204389
H        6.55114743       5.95489458      37.15204389
H        4.78749040       5.95515326      37.15204389
C        5.66953495       7.42791827      38.43353252
F        4.59149619       8.24052668      38.43353252
F        6.74781204       8.24021041      38.43353252
C        5.66941289       6.59570984      39.71502115
H        6.55114743       5.95489458      39.71502115
H        4.78749040       5.95515326      39.71502115
C        5.66953495       7.42791827      40.99650978
F        4.59149619       8.24052668      40.99650978
F        6.74781204       8.24021041      40.99650978
C        5.66941289       6.59570984      42.27799840
H        6.55114743       5.95489458      42.27799840
H        4.78749040       5.95515326      42.27799840
C        5.66953495       7.42791827      43.55948703
F        4.59149619       8.24052668      43.55948703
F        6.74781204       8.24021041      43.55948703
C        5.66941289       6.59570984      44.84097566
H        6.55114743       5.95489458      44.84097566
H        4.78749040       5.95515326      44.84097566
C        5.66953495       7.42791827      46.12246429
F        4.59149619       8.24052668      46.12246429
F        6.74781204       8.24021041      46.12246429
C        5.66941289       6.59570984      47.40395292
H        6.55114743       5.95489458      47.40395292
H        4.78749040       5.95515326      47.40395292
C        5.66953495       7.42791827      48.68544154
F        4.59149619       8.24052668      48.68544154
F        6.74781204       8.24021041      48.68544154
C        5.66941289       6.59570984      49.96693017
H        6.55114743       5.95489458      49.96693017
H        4.78749040       5.95515326      49.96693017
C        5.66953495       7.42791827      51.24841880
F        4.59149619       8.24052668      51.24841880
F        6.74781204       8.24021041      51.24841880
C        5.66941289       6.59570984      52.52990743
H        6.55114743       5.95489458      52.52990743
H        4.78749040       5.95515326      52.52990743
C        5.66953495       7.42791827      53.81139606
C        4.46550513       8.27125224      53.81139606
N        3.51538636       8.93674027      53.81139606
C        6.87381211       8.27089901      53.81139606
N        7.82412606       8.93610830      53.81139606
C        5.66941289       6.59570984      55.09288468
H        6.55114743       5.95489458      55.09288468
H        4.78749040       5.95515326      55.09288468
C        5.66953495       7.42791827      56.37437331
F        4.59149619       8.24052668      56.37437331
F        6.74781204       8.24021041      56.37437331
C        5.66941289       6.59570984      57.65586194
H        6.55114743       5.95489458      57.65586194
H        4.78749040       5.95515326      57.65586194
C        5.66953495       7.42791827      58.93735057
F        4.59149619       8.24052668      58.93735057
F        6.74781204       8.24021041      58.93735057
C        5.66941289       6.59570984      60.21883919
H        6.55114743       5.95489458      60.21883919
H        4.78749040       5.95515326      60.21883919
C        5.66953495       7.42791827      61.50032782
F        4.59149619       8.24052668      61.50032782
F        6.74781204       8.24021041      61.50032782
C        5.66941289       6.59570984      62.78181645
H        6.55114743       5.95489458      62.78181645
H        4.78749040       5.95515326      62.78181645
C        5.66953495       7.42791827      64.06330508
F        4.59149619       8.24052668      64.06330508
F        6.74781204       8.24021041      64.06330508
C        5.66941289       6.59570984      65.34479371
H        6.55114743       5.95489458      65.34479371
H        4.78749040       5.95515326      65.34479371
C        5.66953495       7.42791827      66.62628233
F        4.59149619       8.24052668      66.62628233
F        6.74781204       8.24021041      66.62628233
C       11.33905664       0.52465799       2.56297726
H       10.45732209       1.16547325       2.56297726
H       12.22097912       1.16521457       2.56297726
C       11.33893457      -0.30755045       3.84446588
F       12.41697334      -1.12015886       3.84446588
F       10.26065748      -1.11984258       3.84446588
C       11.33905664       0.52465799       5.12595451
H       10.45732209       1.16547325       5.12595451
H       12.22097912       1.16521457       5.12595451
C       11.33893457      -0.30755045       6.40744314
F       12.41697334      -1.12015886       6.40744314
F       10.26065748      -1.11984258       6.40744314
C       11.33905664       0.52465799       7.68893177
H       10.45732209       1.16547325       7.68893177
H       12.22097912       1.16521457       7.68893177
C       11.33893457      -0.30755045       8.97042039
F       12.41697334      -1.12015886       8.97042039
F       10.26065748      -1.11984258       8.97042039
C       11.33905664       0.52465799      10.25190902
H       10.45732209       1.16547325      10.25190902
H       12.22097912       1.16521457      10.25190902
C       11.33893457      -0.30755045      11.53339765
F       12.41697334      -1.12015886      11.53339765
F       10.26065748      -1.11984258      11.53339765
C       11.33905664       0.52465799      12.81488628
H       10.45732209       1.16547325      12.81488628
H       12.22097912       1.16521457      12.81488628
C       11.33893457      -0.30755045      14.09637491
F       12.41697334      -1.12015886      14.09637491
F       10.26065748      -1.11984258      14.09637491
C       11.33905664       0.52465799      15.37786353
H       10.45732209       1.16547325      15.37786353
H       12.22097912       1.16521457      15.37786353
C       11.33893457      -0.30755045      16.65935216
F       12.41697334      -1.12015886      16.65935216
F       10.26065748      -1.11984258      16.65935216
C       11.33905664       0.52465799      17.94084079
H       10.45732209       1.16547325      17.94084079
H       12.22097912       1.16521457      17.94084079
C       11.33893457      -0.30755045      19.22232942
C       12.54296440      -1.15088442      19.22232942
N       13.49308317      -1.81637245      19.22232942
C       10.13465741      -1.15053118      19.22232942
N        9.18434346      -1.81574047      19.22232942
C       11.33905664       0.52465799      20.50381805
H       10.45732209       1.16547325      20.50381805
H       12.22097912       1.16521457      20.50381805
C       11.33893457      -0.30755045      21.78530667
F       12.41697334      -1.12015886      21.78530667
F       10.26065748      -1.11984258      21.78530667
C       11.33905664       0.52465799      23.06679530
H       10.45732209       1.16547325      23.06679530
H       12.22097912       1.16521457      23.06679530
C       11.33893457      -0.30755045      24.34828393
F       12.41697334      -1.12015886      24.34828393
F       10.26065748      -1.11984258      24.34828393
C       11.33905664       0.52465799      25.62977256
H       10.45732209       1.16547325      25.62977256
H       12.22097912       1.16521457      25.62977256
C       11.33893457      -0.30755045      26.91126118
F       12.41697334      -1.12015886      26.91126118
F       10.26065748      -1.11984258      26.91126118
C       11.33905664       0.52465799      28.19274981
H       10.45732209       1.16547325      28.19274981
H       12.22097912       1.16521457      28.19274981
C       11.33893457      -0.30755045      29.47423844
F       12.41697334      -1.12015886      29.47423844
F       10.26065748      -1.11984258      29.47423844
C       11.33905664       0.52465799      30.75572707
H       10.45732209       1.16547325      30.75572707
H       12.22097912       1.16521457      30.75572707
C       11.33893457      -0.30755045      32.03721570
F       12.41697334      -1.12015886      32.03721570
F       10.26065748      -1.11984258      32.03721570
C       17.00839257       1.84879795      24.33715762
H       17.89012712       1.20798269      24.33715762
H       16.12647009       1.20824137      24.33715762
C       17.00851464       2.68100639      25.61864624
F       15.93047587       3.49361480      25.61864624
F       18.08679173       3.49329852      25.61864624
C       17.00839257       1.84879795      26.90013487
H       17.89012712       1.20798269      26.90013487
H       16.12647009       1.20824137      26.90013487
C       17.00851464       2.68100639      28.18162350
F       15.93047587       3.49361480      28.18162350
F       18.08679173       3.49329852      28.18162350
C       17.00839257       1.84879795      29.46311213
H       17.89012712       1.20798269      29.46311213
H       16.12647009       1.20824137      29.46311213
C       17.00851464       2.68100639      30.74460075
F       15.93047587       3.49361480      30.74460075
F       18.08679173       3.49329852      30.74460075
C       17.00839257       1.84879795      32.02608938
H       17.89012712       1.20798269      32.02608938
H       16.12647009       1.20824137      32.02608938
C       17.00851464       2.68100639      33.30757801
F       15.93047587       3.49361480      33.30757801
F       18.08679173       3.49329852      33.30757801
C       17.00839257       1.84879795      34.58906664
H       17.89012712       1.20798269      34.58906664
H       16.12647009       1.20824137      34.58906664
C       17.00851464       2.68100639      35.87055527
F       15.93047587       3.49361480      35.87055527
F       18.08679173       3.49329852      35.87055527
C       17.00839257       1.84879795      37.15204389
H       17.89012712       1.20798269      37.15204389
H       16.12647009       1.20824137      37.15204389
C       17.00851464       2.68100639      38.43353252
F       15.93047587       3.49361480      38.43353252
F       18.08679173       3.49329852      38.43353252
C       17.00839257       1.84879795      39.71502115
H       17.89012712       1.20798269      39.71502115
H       16.12647009       1.20824137      39.71502115
C       17.00851464       2.68100639      40.99650978
C       15.80448481       3.52434036      40.99650978
N       14.85436604       4.18982839      40.99650978
C       18.21279180       3.52398712      40.99650978
N       19.16310575       4.18919641      40.99650978
C       17.00839257       1.84879795      42.27799840
H       17.89012712       1.20798269      42.27799840
H       16.12647009       1.20824137      42.27799840
C       17.00851464       2.68100639      43.55948703
F       15.93047587       3.49361480      43.55948703
F       18.08679173       3.49329852      43.55948703
C       17.00839257       1.84879795      44.84097566
H       17.89012712       1.20798269      44.84097566
H       16.12647009       1.20824137      44.84097566
C       17.00851464       2.68100639      46.12246429
F       15.93047587       3.49361480      46.12246429
F       18.08679173       3.49329852      46.12246429
C       17.00839257       1.84879795      47.40395292
H       17.89012712       1.20798269      47.40395292
H       16.12647009       1.20824137      47.40395292
C       17.00851464       2.68100639      48.68544154
F       15.93047587       3.49361480      48.68544154
F       18.08679173       3.49329852      48.68544154
C       17.00839257       1.84879795      49.96693017
H       17.89012712       1.20798269      49.96693017
H       16.12647009       1.20824137      49.96693017
C       17.00851464       2.68100639      51.24841880
F       15.93047587       3.49361480      51.24841880
F       18.08679173       3.49329852      51.24841880
C       17.00839257       1.84879795      52.52990743
H       17.89012712       1.20798269      52.52990743
H       16.12647009       1.20824137      52.52990743
C       17.00851464       2.68100639      53.81139606
F       15.93047587       3.49361480      53.81139606
F       18.08679173       3.49329852      53.81139606
C       11.33905664       5.27156987      17.94084079
H       10.45732209       5.91238513      17.94084079
H       12.22097912       5.91212645      17.94084079
C       11.33893457       4.43936144      19.22232942
F       12.41697334       3.62675303      19.22232942
F       10.26065748       3.62706930      19.22232942
C       11.33905664       5.27156987      20.50381805
H       10.45732209       5.91238513      20.50381805
H       12.22097912       5.91212645      20.50381805
C       11.33893457       4.43936144      21.78530667
F       12.41697334       3.62675303      21.78530667
F       10.26065748       3.62706930      21.78530667
C       11.33905664       5.27156987      23.06679530
H       10.45732209       5.91238513      23.06679530
H       12.22097912       5.91212645      23.06679530
C       11.33893457       4.43936144      24.34828393
F       12.41697334       3.62675303      24.34828393
F       10.26065748       3.62706930      24.34828393
C       11.33905664       5.27156987      25.62977256
H       10.45732209       5.91238513      25.62977256
H       12.22097912       5.91212645      25.62977256
C       11.33893457       4.43936144      26.91126118
F       12.41697334       3.62675303      26.91126118
F       10.26065748       3.62706930      26.91126118
C       11.33905664       5.27156987      28.19274981
H       10.45732209       5.91238513      28.19274981
H       12.22097912       5.91212645      28.19274981
C       11.33893457       4.43936144      29.47423844
F       12.41697334       3.62675303      29.47423844
F       10.26065748       3.62706930      29.47423844
C       11.33905664       5.27156987      30.75572707
H       10.45732209       5.91238513      30.75572707
H       12.22097912       5.91212645      30.75572707
C       11.33893457       4.43936144      32.03721570
F       12.41697334       3.62675303      32.03721570
F       10.26065748       3.62706930      32.03721570
C       11.33905664       5.27156987      33.31870432
H       10.45732209       5.91238513      33.31870432
H       12.22097912       5.91212645      33.31870432
C       11.33893457       4.43936144      34.60019295
C       12.54296440       3.59602747      34.60019295
N       13.49308317       2.93053944      34.60019295
C       10.13465741       3.59638070      34.60019295
N        9.18434346       2.93117142      34.60019295
C       11.33905664       5.27156987      35.88168158
H       10.45732209       5.91238513      35.88168158
H       12.22097912       5.91212645      35.88168158
C       11.33893457       4.43936144      37.16317021
F       12.41697334       3.62675303      37.16317021
F       10.26065748       3.62706930      37.16317021
C       11.33905664       5.27156987      38.44465883
H       10.45732209       5.91238513      38.44465883
H       12.22097912       5.91212645      38.44465883
C       11.33893457       4.43936144      39.72614746
F       12.41697334       3.62675303      39.72614746
F       10.26065748       3.62706930      39.72614746
C       11.33905664       5.27156987      41.00763609
H       10.45732209       5.91238513      41.00763609
H       12.22097912       5.91212645      41.00763609
C       11.33893457       4.43936144      42.28912472
F       12.41697334       3.62675303      42.28912472
F       10.26065748       3.62706930      42.28912472
C       11.33905664       5.27156987      43.57061335
H       10.45732209       5.91238513      43.57061335
H       12.22097912       5.91212645      43.57061335
C       11.33893457       4.43936144      44.85210197
F       12.41697334       3.62675303      44.85210197
F       10.26065748       3.62706930      44.85210197
C       11.33905664       5.27156987      46.13359060
H       10.45732209       5.91238513      46.13359060
H       12.22097912       5.91212645      46.13359060
C       11.33893457       4.43936144      47.41507923
F       12.41697334       3.62675303      47.41507923
F       10.26065748       3.62706930      47.41507923
C       17.00839257       6.59570984      39.71502115
H       17.89012712       5.95489458      39.71502115
H       16.12647009       5.95515326      39.71502115
C       17.00851464       7.42791827      40.99650978
F       15.93047587       8.24052668      40.99650978
F       18.08679173       8.24021041      40.99650978
C       17.00839257       6.59570984      42.27799840
H       17.89012712       5.95489458      42.27799840
H       16.12647009       5.95515326      42.27799840
C       17.00851464       7.42791827      43.55948703
F       15.93047587       8.24052668      43.55948703
F       18.08679173       8.24021041      43.55948703
C       17.00839257       6.59570984      44.84097566
H       17.89012712       5.95489458      44.84097566
H       16.12647009       5.95515326      44.84097566
C       17.00851464       7.42791827      46.12246429
F       15.93047587       8.24052668      46.12246429
F       18.08679173       8.24021041      46.12246429
C       17.00839257       6.59570984      47.40395292
H       17.89012712       5.95489458      47.40395292
H       16.12647009       5.95515326      47.40395292
C       17.00851464       7.42791827      48.68544154
F       15.93047587       8.24052668      48.68544154
F       18.08679173       8.24021041      48.68544154
C       17.00839257       6.59570984      49.96693017
H       17.89012712       5.95489458      49.96693017
H       16.12647009       5.95515326      49.96693017
C       17.00851464       7.42791827      51.24841880
F       15.93047587       8.24052668      51.24841880
F       18.08679173       8.24021041      51.24841880
C       17.00839257       6.59570984      52.52990743
H       17.89012712       5.95489458      52.52990743
H       16.12647009       5.95515326      52.52990743
C       17.00851464       7.42791827      53.81139606
F       15.93047587       8.24052668      53.81139606
F       18.08679173       8.24021041      53.81139606
C       17.00839257       6.59570984      55.09288468
H       17.89012712       5.95489458      55.09288468
H       16.12647009       5.95515326      55.09288468
C       17.00851464       7.42791827      56.37437331
C       15.80448481       8.27125224      56.37437331
N       14.85436604       8.93674027      56.37437331
C       18.21279180       8.27089901      56.37437331
N       19.16310575       8.93610830      56.37437331
C       17.00839257       6.59570984      57.65586194
H       17.89012712       5.95489458      57.65586194
H       16.12647009       5.95515326      57.65586194
C       17.00851464       7.42791827      58.93735057
F       15.93047587       8.24052668      58.93735057
F       18.08679173       8.24021041      58.93735057
C       17.00839257       6.59570984      60.21883919
H       17.89012712       5.95489458      60.21883919
H       16.12647009       5.95515326      60.21883919
C       17.00851464       7.42791827      61.50032782
F       15.93047587       8.24052668      61.50032782
F       18.08679173       8.24021041      61.50032782
C       17.00839257       6.59570984      62.78181645
H       17.89012712       5.95489458      62.78181645
H       16.12647009       5.95515326      62.78181645
C       17.00851464       7.42791827      64.06330508
F       15.93047587       8.24052668      64.06330508
F       18.08679173       8.24021041      64.06330508
C       17.00839257       6.59570984      65.34479371
H       17.89012712       5.95489458      65.34479371
H       16.12647009       5.95515326      65.34479371
C       17.00851464       7.42791827      66.62628233
F       15.93047587       8.24052668      66.62628233
F       18.08679173       8.24021041      66.62628233
C       17.00839257       6.59570984      67.90777096
H       17.89012712       5.95489458      67.90777096
H       16.12647009       5.95515326      67.90777096
C       17.00851464       7.42791827      69.18925959
F       15.93047587       8.24052668      69.18925959
F       18.08679173       8.24021041      69.18925959
