148
Lattice="11.32674698 0.00000000 0.00000000 0.00000000 4.74513277 0.00000000 0.00000000 0.00000000 30.75572707" Properties=species:S:1:pos:R:3 pbc="T T T" polyfind_label="antipolar all-trans 11VDF:1VDCN" energy_per_monomer_kcal_mol=-3.751360 density_g_cm3=1.572009 min_interchain_distance_A=2.7904
C       -0.00000221       0.52465800       0.00000000
H       -0.88183343       1.16534021       0.00000000
H        0.88182362       1.16534763       0.00000000
C        0.00000130      -0.30755045       1.28148863
F        1.07816266      -1.11999619       1.28148863
F       -1.07815322      -1.12000527       1.28148863
C       -0.00000221       0.52465800       2.56297726
H       -0.88183343       1.16534021       2.56297726
H        0.88182362       1.16534763       2.56297726
C        0.00000130      -0.30755045       3.84446588
F        1.07816266      -1.11999619       3.84446588
F       -1.07815322      -1.12000527       3.84446588
C       -0.00000221       0.52465800       5.12595451
H       -0.88183343       1.16534021       5.12595451
H        0.88182362       1.16534763       5.12595451
C        0.00000130      -0.30755045       6.40744314
F        1.07816266      -1.11999619       6.40744314
F       -1.07815322      -1.12000527       6.40744314
C       -0.00000221       0.52465800       7.68893177
H       -0.88183343       1.16534021       7.68893177
H        0.88182362       1.16534763       7.68893177
C        0.00000130      -0.30755045       8.97042039
F        1.07816266      -1.11999619       8.97042039
F       -1.07815322      -1.12000527       8.97042039
C       -0.00000221       0.52465800      10.25190902
H       -0.88183343       1.16534021      10.25190902
H        0.88182362       1.16534763      10.25190902
C        0.00000130      -0.30755045      11.53339765
F        1.07816266      -1.11999619      11.53339765
F       -1.07815322      -1.12000527      11.53339765
C       -0.00000221       0.52465800      12.81488628
H       -0.88183343       1.16534021      12.81488628
H        0.88182362       1.16534763      12.81488628
C        0.00000130      -0.30755045      14.09637491
F        1.07816266      -1.11999619      14.09637491
F       -1.07815322      -1.12000527      14.09637491
C       -0.00000221       0.52465800      15.37786353
H       -0.88183343       1.16534021      15.37786353
H        0.88182362       1.16534763      15.37786353
C        0.00000130      -0.30755045      16.65935216
C        1.20415835      -1.15070274      16.65935216
N        2.15437752      -1.81604740      16.65935216
C       -1.20414866      -1.15071288      16.65935216
N       -2.15436223      -1.81606555      16.65935216
C       -0.00000221       0.52465800      17.94084079
H       -0.88183343       1.16534021      17.94084079
H        0.88182362       1.16534763      17.94084079
C        0.00000130      -0.30755045      19.22232942
F        1.07816266      -1.11999619      19.22232942
F       -1.07815322      -1.12000527      19.22232942
C       -0.00000221       0.52465800      20.50381805
H       -0.88183343       1.16534021      20.50381805
H        0.88182362       1.16534763      20.50381805
C        0.00000130      -0.30755045      21.78530667
F        1.07816266      -1.11999619      21.78530667
F       -1.07815322      -1.12000527      21.78530667
C       -0.00000221       0.52465800      23.06679530
H       -0.88183343       1.16534021      23.06679530
H        0.88182362       1.16534763      23.06679530
C        0.00000130      -0.30755045      24.34828393
F        1.07816266      -1.11999619      24.34828393
F       -1.07815322      -1.12000527      24.34828393
C       -0.00000221       0.52465800      25.62977256
H       -0.88183343       1.16534021      25.62977256
H        0.88182362       1.16534763      25.62977256
C        0.00000130      -0.30755045      26.91126118
F        1.07816266      -1.11999619      26.91126118
F       -1.07815322      -1.12000527      26.91126118
C       -0.00000221       0.52465800      28.19274981
H       -0.88183343       1.16534021      28.19274981
H        0.88182362       1.16534763      28.19274981
C        0.00000130      -0.30755045      29.47423844
F        1.07816266      -1.11999619      29.47423844
F       -1.07815322      -1.12000527      29.47423844
C        5.66337570       1.84790839       3.81182917
H        6.54520692       1.20722618       3.81182917
H        4.78154988       1.20721875       3.81182917
C        5.66337220       2.68011683       5.09331780
F        4.58521084       3.49256257       5.09331780
F        6.74152671       3.49257166       5.09331780
C        5.66337570       1.84790839       6.37480643
H        6.54520692       1.20722618       6.37480643
H        4.78154988       1.20721875       6.37480643
C        5.66337220       2.68011683       7.65629506
F        4.58521084       3.49256257       7.65629506
F        6.74152671       3.49257166       7.65629506
C        5.66337570       1.84790839       8.93778368
H        6.54520692       1.20722618       8.93778368
H        4.78154988       1.20721875       8.93778368
C        5.66337220       2.68011683      10.21927231
F        4.58521084       3.49256257      10.21927231
F        6.74152671       3.49257166      10.21927231
C        5.66337570       1.84790839      11.50076094
H        6.54520692       1.20722618      11.50076094
H        4.78154988       1.20721875      11.50076094
C        5.66337220       2.68011683      12.78224957
F        4.58521084       3.49256257      12.78224957
F        6.74152671       3.49257166      12.78224957
C        5.66337570       1.84790839      14.06373820
H        6.54520692       1.20722618      14.06373820
H        4.78154988       1.20721875      14.06373820
C        5.66337220       2.68011683      15.34522682
F        4.58521084       3.49256257      15.34522682
F        6.74152671       3.49257166      15.34522682
C        5.66337570       1.84790839      16.62671545
H        6.54520692       1.20722618      16.62671545
H        4.78154988       1.20721875      16.62671545
C        5.66337220       2.68011683      17.90820408
F        4.58521084       3.49256257      17.90820408
F        6.74152671       3.49257166      17.90820408
C        5.66337570       1.84790839      19.18969271
H        6.54520692       1.20722618      19.18969271
H        4.78154988       1.20721875      19.18969271
C        5.66337220       2.68011683      20.47118134
C        4.45921514       3.52326912      20.47118134
N        3.50899597       4.18861379      20.47118134
C        6.86752215       3.52327927      20.47118134
N        7.81773572       4.18863193      20.47118134
C        5.66337570       1.84790839      21.75266996
H        6.54520692       1.20722618      21.75266996
H        4.78154988       1.20721875      21.75266996
C        5.66337220       2.68011683      23.03415859
F        4.58521084       3.49256257      23.03415859
F        6.74152671       3.49257166      23.03415859
C        5.66337570       1.84790839      24.31564722
H        6.54520692       1.20722618      24.31564722
H        4.78154988       1.20721875      24.31564722
C        5.66337220       2.68011683      25.59713585
F        4.58521084       3.49256257      25.59713585
F        6.74152671       3.49257166      25.59713585
C        5.66337570       1.84790839      26.87862447
H        6.54520692       1.20722618      26.87862447
H        4.78154988       1.20721875      26.87862447
C        5.66337220       2.68011683      28.16011310
F        4.58521084       3.49256257      28.16011310
F        6.74152671       3.49257166      28.16011310
C        5.66337570       1.84790839      29.44160173
H        6.54520692       1.20722618      29.44160173
H        4.78154988       1.20721875      29.44160173
C        5.66337220       2.68011683      30.72309036
F        4.58521084       3.49256257      30.72309036
F        6.74152671       3.49257166      30.72309036
C        5.66337570       1.84790839      32.00457899
H        6.54520692       1.20722618      32.00457899
H        4.78154988       1.20721875      32.00457899
C        5.66337220       2.68011683      33.28606761
F        4.58521084       3.49256257      33.28606761
F        6.74152671       3.49257166      33.28606761
