148
Lattice="10.45975536 0.00000000 0.00000000 0.00000000 4.80355709 0.00000000 0.00000000 0.00000000 30.75572707" Properties=species:S:1:pos:R:3 pbc="T T T" polyfind_label="polar all-trans 11VDF:1VDCN" energy_per_monomer_kcal_mol=-4.608214 density_g_cm3=1.681606 min_interchain_distance_A=2.5900
C        0.00000000       0.52465800       0.00000000
H       -0.88182852       1.16534393       0.00000000
H        0.88182853       1.16534391       0.00000000
C       -0.00000000      -0.30755045       1.28148863
F        1.07815793      -1.12000074       1.28148863
F       -1.07815795      -1.12000072       1.28148863
C        0.00000000       0.52465800       2.56297726
H       -0.88182852       1.16534393       2.56297726
H        0.88182853       1.16534391       2.56297726
C       -0.00000000      -0.30755045       3.84446588
F        1.07815793      -1.12000074       3.84446588
F       -1.07815795      -1.12000072       3.84446588
C        0.00000000       0.52465800       5.12595451
H       -0.88182852       1.16534393       5.12595451
H        0.88182853       1.16534391       5.12595451
C       -0.00000000      -0.30755045       6.40744314
F        1.07815793      -1.12000074       6.40744314
F       -1.07815795      -1.12000072       6.40744314
C        0.00000000       0.52465800       7.68893177
H       -0.88182852       1.16534393       7.68893177
H        0.88182853       1.16534391       7.68893177
C       -0.00000000      -0.30755045       8.97042039
F        1.07815793      -1.12000074       8.97042039
F       -1.07815795      -1.12000072       8.97042039
C        0.00000000       0.52465800      10.25190902
H       -0.88182852       1.16534393      10.25190902
H        0.88182853       1.16534391      10.25190902
C       -0.00000000      -0.30755045      11.53339765
F        1.07815793      -1.12000074      11.53339765
F       -1.07815795      -1.12000072      11.53339765
C        0.00000000       0.52465800      12.81488628
H       -0.88182852       1.16534393      12.81488628
H        0.88182853       1.16534391      12.81488628
C       -0.00000000      -0.30755045      14.09637491
F        1.07815793      -1.12000074      14.09637491
F       -1.07815795      -1.12000072      14.09637491
C        0.00000000       0.52465800      15.37786353
H       -0.88182852       1.16534393      15.37786353
H        0.88182853       1.16534391      15.37786353
C       -0.00000000      -0.30755045      16.65935216
C        1.20415350      -1.15070782      16.65935216
N        2.15436986      -1.81605649      16.65935216
C       -1.20415351      -1.15070780      16.65935216
N       -2.15436989      -1.81605646      16.65935216
C        0.00000000       0.52465800      17.94084079
H       -0.88182852       1.16534393      17.94084079
H        0.88182853       1.16534391      17.94084079
C       -0.00000000      -0.30755045      19.22232942
F        1.07815793      -1.12000074      19.22232942
F       -1.07815795      -1.12000072      19.22232942
C        0.00000000       0.52465800      20.50381805
H       -0.88182852       1.16534393      20.50381805
H        0.88182853       1.16534391      20.50381805
C       -0.00000000      -0.30755045      21.78530667
F        1.07815793      -1.12000074      21.78530667
F       -1.07815795      -1.12000072      21.78530667
C        0.00000000       0.52465800      23.06679530
H       -0.88182852       1.16534393      23.06679530
H        0.88182853       1.16534391      23.06679530
C       -0.00000000      -0.30755045      24.34828393
F        1.07815793      -1.12000074      24.34828393
F       -1.07815795      -1.12000072      24.34828393
C        0.00000000       0.52465800      25.62977256
H       -0.88182852       1.16534393      25.62977256
H        0.88182853       1.16534391      25.62977256
C       -0.00000000      -0.30755045      26.91126118
F        1.07815793      -1.12000074      26.91126118
F       -1.07815795      -1.12000072      26.91126118
C        0.00000000       0.52465800      28.19274981
H       -0.88182852       1.16534393      28.19274981
H        0.88182853       1.16534391      28.19274981
C       -0.00000000      -0.30755045      29.47423844
F        1.07815793      -1.12000074      29.47423844
F       -1.07815795      -1.12000072      29.47423844
C        5.22987768       2.92643654       2.53040530
H        4.34804915       3.56712246       2.53040530
H        6.11170620       3.56712247       2.53040530
C        5.22987768       2.09422810       3.81189393
F        6.30803562       1.28177782       3.81189393
F        4.15171975       1.28177781       3.81189393
C        5.22987768       2.92643654       5.09338256
H        4.34804915       3.56712246       5.09338256
H        6.11170620       3.56712247       5.09338256
C        5.22987768       2.09422810       6.37487118
F        6.30803562       1.28177782       6.37487118
F        4.15171975       1.28177781       6.37487118
C        5.22987768       2.92643654       7.65635981
H        4.34804915       3.56712246       7.65635981
H        6.11170620       3.56712247       7.65635981
C        5.22987768       2.09422810       8.93784844
F        6.30803562       1.28177782       8.93784844
F        4.15171975       1.28177781       8.93784844
C        5.22987768       2.92643654      10.21933707
H        4.34804915       3.56712246      10.21933707
H        6.11170620       3.56712247      10.21933707
C        5.22987768       2.09422810      11.50082570
F        6.30803562       1.28177782      11.50082570
F        4.15171975       1.28177781      11.50082570
C        5.22987768       2.92643654      12.78231432
H        4.34804915       3.56712246      12.78231432
H        6.11170620       3.56712247      12.78231432
C        5.22987768       2.09422810      14.06380295
F        6.30803562       1.28177782      14.06380295
F        4.15171975       1.28177781      14.06380295
C        5.22987768       2.92643654      15.34529158
H        4.34804915       3.56712246      15.34529158
H        6.11170620       3.56712247      15.34529158
C        5.22987768       2.09422810      16.62678021
F        6.30803562       1.28177782      16.62678021
F        4.15171975       1.28177781      16.62678021
C        5.22987768       2.92643654      17.90826883
H        4.34804915       3.56712246      17.90826883
H        6.11170620       3.56712247      17.90826883
C        5.22987768       2.09422810      19.18975746
C        6.43403119       1.25107074      19.18975746
N        7.38424756       0.58572208      19.18975746
C        4.02572418       1.25107073      19.18975746
N        3.07550781       0.58572206      19.18975746
C        5.22987768       2.92643654      20.47124609
H        4.34804915       3.56712246      20.47124609
H        6.11170620       3.56712247      20.47124609
C        5.22987768       2.09422810      21.75273472
F        6.30803562       1.28177782      21.75273472
F        4.15171975       1.28177781      21.75273472
C        5.22987768       2.92643654      23.03422335
H        4.34804915       3.56712246      23.03422335
H        6.11170620       3.56712247      23.03422335
C        5.22987768       2.09422810      24.31571197
F        6.30803562       1.28177782      24.31571197
F        4.15171975       1.28177781      24.31571197
C        5.22987768       2.92643654      25.59720060
H        4.34804915       3.56712246      25.59720060
H        6.11170620       3.56712247      25.59720060
C        5.22987768       2.09422810      26.87868923
F        6.30803562       1.28177782      26.87868923
F        4.15171975       1.28177781      26.87868923
C        5.22987768       2.92643654      28.16017786
H        4.34804915       3.56712246      28.16017786
H        6.11170620       3.56712247      28.16017786
C        5.22987768       2.09422810      29.44166648
F        6.30803562       1.28177782      29.44166648
F        4.15171975       1.28177781      29.44166648
C        5.22987768       2.92643654      30.72315511
H        4.34804915       3.56712246      30.72315511
H        6.11170620       3.56712247      30.72315511
C        5.22987768       2.09422810      32.00464374
F        6.30803562       1.28177782      32.00464374
F        4.15171975       1.28177781      32.00464374
