12
Lattice="8.5028995993 -0.0000000000 -0.0000000000 0.0000000000 4.5634837550 0.0000000000 0.0000000000 0.0000000000 2.5494118902" Properties=species:S:1:pos:R:3 frame=producer(x=long,y=polar,z=chain) units=A
C      0.0000000000    -0.4785352008     0.0033913414
H      0.8818285239    -1.1192211258     0.0033913414
H     -0.8818285239    -1.1192211258     0.0033913414
C     -0.0000000000     0.3640256300     1.2780972865
F     -1.0781579386     1.1764759112     1.2780972865
F      1.0781579386     1.1764759112     1.2780972865
C     -4.2514497997     1.8032066767     0.0033913414
H     -3.3696212758     1.1625207517     0.0033913414
H     -5.1332783235     1.1625207517     0.0033913414
C     -4.2514497997     2.6457675075     1.2780972865
F     -5.3296077382     3.4582177887     1.2780972865
F     -3.1732918611     3.4582177887     1.2780972865
