33
{"chemistry":"an","monomers":5,"defect_count":1,"axes":"x=transverse,y=central-pendant,z=chain"}
C 0.042510 -0.121099 -5.808700
H 1.072877 0.231490 -5.854810
H 0.056753 -1.210030 -5.854810
C -0.560547 0.303995 -4.470641
F -1.844055 -0.110358 -4.412170
F -0.601702 1.652100 -4.412170
C 0.193274 -0.227372 -3.252369
H 1.223641 0.125217 -3.298479
H 0.207517 -1.316303 -3.298479
C -0.409783 0.197721 -1.914310
F -1.693291 -0.216632 -1.855839
F -0.450938 1.545826 -1.855839
C 0.344039 -0.333645 -0.696038
H 1.374405 0.018943 -0.742148
H 0.358282 -1.422577 -0.742148
C -0.259018 0.091448 0.642021
H -1.284718 -0.274598 0.687296
C -0.259018 1.560179 0.703080
N -0.259018 2.719178 0.751263
C 0.494803 -0.439919 1.860293
H 1.525169 -0.087330 1.814183
H 0.509046 -1.528850 1.814183
C -0.108254 -0.014825 3.198352
F -1.391762 -0.429178 3.256824
F -0.149410 1.333280 3.256824
C 0.645567 -0.546192 4.416624
H 1.675934 -0.193604 4.370514
H 0.659810 -1.635123 4.370514
C 0.042510 -0.121099 5.754683
F -1.240998 -0.535452 5.813155
F 0.001355 1.227006 5.813155
H -0.495229 0.257952 -6.677755
H 0.580249 -0.500150 6.623738
