45
{"chemistry":"an","monomers":7,"defect_count":1,"axes":"x=transverse,y=central-pendant,z=chain"}
C 0.043918 -0.097861 -8.358931
H 1.075214 0.253574 -8.390896
H 0.058174 -1.187299 -8.390896
C -0.582898 0.344578 -7.037517
F -1.867564 -0.068328 -6.996982
F -0.624091 1.693340 -6.996982
C 0.148388 -0.171601 -5.799145
H 1.179684 0.179835 -5.831111
H 0.162643 -1.261039 -5.831111
C -0.478429 0.270838 -4.477732
F -1.763095 -0.142067 -4.437197
F -0.519622 1.619600 -4.437197
C 0.252857 -0.245340 -3.239360
H 1.284153 0.106095 -3.271325
H 0.267113 -1.334778 -3.271325
C -0.373959 0.197098 -1.917947
F -1.658625 -0.215807 -1.877412
F -0.415152 1.545860 -1.877412
C 0.357327 -0.319080 -0.679575
H 1.388623 0.032355 -0.711540
H 0.371582 -1.408518 -0.711540
C -0.269490 0.123358 0.641839
H -1.296115 -0.241546 0.673225
C -0.269490 1.592749 0.684167
N -0.269490 2.752268 0.717570
C 0.461796 -0.392820 1.880211
H 1.493092 -0.041385 1.848245
H 0.476052 -1.482258 1.848245
C -0.165021 0.049619 3.201624
F -1.449686 -0.363287 3.242159
F -0.206213 1.398381 3.242159
C 0.566265 -0.466560 4.439996
H 1.597561 -0.115124 4.408031
H 0.580521 -1.555997 4.408031
C -0.060551 -0.024121 5.761409
F -1.345217 -0.437026 5.801944
F -0.101744 1.324641 5.801944
C 0.670735 -0.540299 6.999781
H 1.702031 -0.188864 6.967816
H 0.684991 -1.629737 6.967816
C 0.043918 -0.097861 8.321195
F -1.240748 -0.510766 8.361730
F 0.002726 1.250902 8.361730
H -0.477745 0.270355 -9.242324
H 0.565582 -0.466077 9.204588
