57
{"chemistry":"an","monomers":9,"defect_count":1,"axes":"x=transverse,y=central-pendant,z=chain"}
C 0.044631 -0.084313 -10.915098
H 1.076283 0.266680 -10.939555
H 0.058892 -1.173945 -10.939555
C -0.594697 0.367190 -9.602776
F -1.879806 -0.045161 -9.571763
F -0.635904 1.716204 -9.571763
C 0.124547 -0.140751 -8.353989
H 1.156199 0.210242 -8.378445
H 0.138808 -1.230383 -8.378445
C -0.514781 0.310752 -7.041667
F -1.799890 -0.101598 -7.010653
F -0.555988 1.659766 -7.010653
C 0.204463 -0.197189 -5.792880
H 1.236115 0.153804 -5.817336
H 0.218723 -1.286821 -5.817336
C -0.434865 0.254314 -4.480557
F -1.719974 -0.158036 -4.449544
F -0.476072 1.603328 -4.449544
C 0.284379 -0.253627 -3.231770
H 1.316031 0.097366 -3.256227
H 0.298639 -1.343259 -3.256227
C -0.354949 0.197876 -1.919448
F -1.640058 -0.214474 -1.888435
F -0.396156 1.546891 -1.888435
C 0.364295 -0.310065 -0.670661
H 1.395947 0.040928 -0.695118
H 0.378555 -1.399697 -0.695118
C -0.275033 0.141438 0.641661
H -1.302013 -0.223029 0.665675
C -0.275033 1.611081 0.674047
N -0.275033 2.770800 0.699603
C 0.444211 -0.366502 1.890448
H 1.475863 -0.015509 1.865992
H 0.458471 -1.456135 1.865992
C -0.195117 0.085000 3.202770
F -1.480226 -0.327350 3.233784
F -0.236324 1.434015 3.233784
C 0.524127 -0.422940 4.451557
H 1.555778 -0.071947 4.427101
H 0.538387 -1.512573 4.427101
C -0.115201 0.028563 5.763880
F -1.400310 -0.383788 5.794893
F -0.156408 1.377577 5.794893
C 0.604042 -0.479378 7.012667
H 1.635694 -0.128385 6.988210
H 0.618303 -1.569010 6.988210
C -0.035285 -0.027875 8.324989
F -1.320394 -0.440225 8.356002
F -0.076492 1.321139 8.356002
C 0.683958 -0.535816 9.573776
H 1.715610 -0.184823 9.549319
H 0.698219 -1.625448 9.549319
C 0.044631 -0.084313 10.886098
F -1.240478 -0.496663 10.917112
F 0.003424 1.264701 10.917112
H -0.468442 0.278027 -11.805921
H 0.557704 -0.446653 11.776921
