44
{"chemistry":"pvdf","monomers":7,"defect_count":0,"axes":"x=transverse,y=central-pendant,z=chain"}
C 0.000000 -0.054584 -8.342789
H 0.881829 -0.694472 -8.374755
H -0.881829 -0.694472 -8.374755
C -0.000000 0.712651 -7.021376
F -1.078158 1.524090 -6.980841
F 1.078158 1.524090 -6.980841
C 0.000000 -0.182457 -5.783004
H 0.881829 -0.822345 -5.814969
H -0.881829 -0.822345 -5.814969
C -0.000000 0.584779 -4.461591
F -1.078158 1.396217 -4.421056
F 1.078158 1.396217 -4.421056
C 0.000000 -0.310329 -3.223219
H 0.881829 -0.950217 -3.255184
H -0.881829 -0.950217 -3.255184
C -0.000000 0.456906 -1.901805
F -1.078158 1.268345 -1.861270
F 1.078158 1.268345 -1.861270
C -0.000000 -0.438202 -0.663433
H 0.881829 -1.078090 -0.695399
H -0.881829 -1.078090 -0.695399
C 0.000000 0.329034 0.657980
F -1.078158 1.140472 0.698515
F 1.078158 1.140472 0.698515
C -0.000000 -0.566075 1.896352
H 0.881829 -1.205963 1.864387
H -0.881829 -1.205963 1.864387
C 0.000000 0.201161 3.217765
F -1.078158 1.012599 3.258300
F 1.078158 1.012599 3.258300
C -0.000000 -0.693947 4.456137
H 0.881829 -1.333835 4.424172
H -0.881829 -1.333835 4.424172
C 0.000000 0.073288 5.777551
F -1.078158 0.884727 5.818086
F 1.078158 0.884727 5.818086
C -0.000000 -0.821820 7.015923
H 0.881829 -1.461708 6.983957
H -0.881829 -1.461708 6.983957
C 0.000000 -0.054584 8.337336
F -1.078158 0.756854 8.377871
F 1.078158 0.756854 8.377871
H -0.000000 0.583942 -9.226183
H -0.000000 -0.693110 9.220730
