32
{"chemistry":"pvdf","monomers":5,"defect_count":0,"axes":"x=transverse,y=central-pendant,z=chain"}
C 0.000000 -0.053537 -5.785555
H 0.881829 -0.692562 -5.831664
H -0.881829 -0.692562 -5.831664
C -0.000000 0.684285 -4.447496
F -1.078158 1.494629 -4.389024
F 1.078158 1.494629 -4.389024
C 0.000000 -0.237993 -3.229224
H 0.881829 -0.877017 -3.275333
H -0.881829 -0.877017 -3.275333
C -0.000000 0.499830 -1.891165
F -1.078158 1.310173 -1.832693
F 1.078158 1.310173 -1.832693
C 0.000000 -0.422448 -0.672893
H 0.881829 -1.061473 -0.719002
H -0.881829 -1.061473 -0.719002
C -0.000000 0.315374 0.665166
F -1.078158 1.125718 0.723638
F 1.078158 1.125718 0.723638
C 0.000000 -0.606904 1.883439
H 0.881829 -1.245929 1.837329
H -0.881829 -1.245929 1.837329
C 0.000000 0.130918 3.221498
F -1.078158 0.941262 3.279969
F 1.078158 0.941262 3.279969
C -0.000000 -0.791360 4.439770
H 0.881829 -1.430384 4.393660
H -0.881829 -1.430384 4.393660
C 0.000000 -0.053537 5.777829
F -1.078158 0.756806 5.836300
F 1.078158 0.756806 5.836300
H -0.000000 0.604371 -6.654610
H -0.000000 -0.711445 6.646884
