56
{"chemistry":"pvdf","monomers":9,"defect_count":0,"axes":"x=transverse,y=central-pendant,z=chain"}
C 0.000000 -0.055170 -10.902706
H 0.881829 -0.695389 -10.927162
H -0.881829 -0.695389 -10.927162
C -0.000000 0.727514 -9.590383
F -1.078158 1.539373 -9.559370
F 1.078158 1.539373 -9.559370
C 0.000000 -0.153005 -8.341596
H 0.881829 -0.793224 -8.366053
H -0.881829 -0.793224 -8.366053
C -0.000000 0.629679 -7.029274
F -1.078158 1.441537 -6.998261
F 1.078158 1.441537 -6.998261
C 0.000000 -0.250841 -5.780487
H 0.881829 -0.891060 -5.804944
H -0.881829 -0.891060 -5.804944
C -0.000000 0.531843 -4.468165
F -1.078158 1.343702 -4.437152
F 1.078158 1.343702 -4.437152
C 0.000000 -0.348676 -3.219378
H 0.881829 -0.988895 -3.243835
H -0.881829 -0.988895 -3.243835
C -0.000000 0.434008 -1.907056
F -1.078158 1.245866 -1.876042
F 1.078158 1.245866 -1.876042
C -0.000000 -0.446512 -0.658269
H 0.881829 -1.086731 -0.682725
H -0.881829 -1.086731 -0.682725
C 0.000000 0.336172 0.654054
F -1.078158 1.148030 0.685067
F 1.078158 1.148030 0.685067
C -0.000000 -0.544347 1.902841
H 0.881829 -1.184566 1.878384
H -0.881829 -1.184566 1.878384
C 0.000000 0.238337 3.215163
F -1.078158 1.050195 3.246176
F 1.078158 1.050195 3.246176
C -0.000000 -0.642183 4.463950
H 0.881829 -1.282402 4.439493
H -0.881829 -1.282402 4.439493
C 0.000000 0.140501 5.776272
F -1.078158 0.952359 5.807285
F 1.078158 0.952359 5.807285
C -0.000000 -0.740018 7.025059
H 0.881829 -1.380237 7.000603
H -0.881829 -1.380237 7.000603
C 0.000000 0.042666 8.337381
F -1.078158 0.854524 8.368395
F 1.078158 0.854524 8.368395
C -0.000000 -0.837854 9.586168
H 0.881829 -1.478073 9.561712
H -0.881829 -1.478073 9.561712
C 0.000000 -0.055170 10.898491
F -1.078158 0.756688 10.929504
F 1.078158 0.756688 10.929504
H -0.000000 0.572950 -11.793529
H -0.000000 -0.683289 11.789314
