58
{"chemistry":"vdcn","monomers":9,"defect_count":1,"axes":"x=transverse,y=central-pendant,z=chain"}
C 0.000000 -0.119800 -10.927285
H 0.881829 -0.760018 -10.951742
H -0.881829 -0.760018 -10.951742
C -0.000000 0.662885 -9.614963
F -1.078158 1.474743 -9.583950
F 1.078158 1.474743 -9.583950
C 0.000000 -0.217635 -8.366176
H 0.881829 -0.857854 -8.390633
H -0.881829 -0.857854 -8.390633
C -0.000000 0.565049 -7.053854
F -1.078158 1.376907 -7.022840
F 1.078158 1.376907 -7.022840
C 0.000000 -0.315471 -5.805067
H 0.881829 -0.955690 -5.829523
H -0.881829 -0.955690 -5.829523
C -0.000000 0.467214 -4.492745
F -1.078158 1.279072 -4.461731
F 1.078158 1.279072 -4.461731
C 0.000000 -0.413306 -3.243957
H 0.881829 -1.053525 -3.268414
H -0.881829 -1.053525 -3.268414
C -0.000000 0.369378 -1.931635
F -1.078158 1.181236 -1.900622
F 1.078158 1.181236 -1.900622
C -0.000000 -0.511142 -0.682848
H 0.881829 -1.151361 -0.707305
H -0.881829 -1.151361 -0.707305
C -0.000000 0.271543 0.629474
C -1.204154 1.114085 0.661659
N -2.154370 1.778949 0.687058
C 1.204154 1.114085 0.661659
N 2.154370 1.778949 0.687058
C -0.000000 -0.608977 1.878261
H 0.881829 -1.249196 1.853804
H -0.881829 -1.249196 1.853804
C 0.000000 0.173707 3.190583
F -1.078158 0.985565 3.221597
F 1.078158 0.985565 3.221597
C -0.000000 -0.706813 4.439370
H 0.881829 -1.347032 4.414914
H -0.881829 -1.347032 4.414914
C 0.000000 0.075872 5.751692
F -1.078158 0.887730 5.782706
F 1.078158 0.887730 5.782706
C -0.000000 -0.804648 7.000480
H 0.881829 -1.444867 6.976023
H -0.881829 -1.444867 6.976023
C 0.000000 -0.021964 8.312802
F -1.078158 0.789894 8.343815
F 1.078158 0.789894 8.343815
C -0.000000 -0.902484 9.561589
H 0.881829 -1.542703 9.537132
H -0.881829 -1.542703 9.537132
C 0.000000 -0.119800 10.873911
F -1.078158 0.692059 10.904924
F 1.078158 0.692059 10.904924
H -0.000000 0.508320 -11.818108
H -0.000000 -0.747919 11.764734
