46
{"chemistry":"vdcn","monomers":7,"defect_count":1,"axes":"x=transverse,y=central-pendant,z=chain"}
C 0.000000 -0.135729 -8.374736
H 0.881829 -0.775617 -8.406701
H -0.881829 -0.775617 -8.406701
C -0.000000 0.631507 -7.053323
F -1.078158 1.442945 -7.012788
F 1.078158 1.442945 -7.012788
C 0.000000 -0.263602 -5.814951
H 0.881829 -0.903490 -5.846916
H -0.881829 -0.903490 -5.846916
C -0.000000 0.503634 -4.493537
F -1.078158 1.315073 -4.453002
F 1.078158 1.315073 -4.453002
C 0.000000 -0.391474 -3.255165
H 0.881829 -1.031362 -3.287131
H -0.881829 -1.031362 -3.287131
C -0.000000 0.375761 -1.933752
F -1.078158 1.187200 -1.893217
F 1.078158 1.187200 -1.893217
C 0.000000 -0.519347 -0.695380
H 0.881829 -1.159235 -0.727345
H -0.881829 -1.159235 -0.727345
C -0.000000 0.247889 0.626033
C -1.204154 1.089996 0.668100
N -2.154370 1.754516 0.701296
C 1.204154 1.089996 0.668100
N 2.154370 1.754516 0.701296
C -0.000000 -0.647219 1.864405
H 0.881829 -1.287107 1.832440
H -0.881829 -1.287107 1.832440
C 0.000000 0.120016 3.185819
F -1.078158 0.931455 3.226354
F 1.078158 0.931455 3.226354
C -0.000000 -0.775092 4.424191
H 0.881829 -1.414980 4.392225
H -0.881829 -1.414980 4.392225
C 0.000000 -0.007856 5.745604
F -1.078158 0.803582 5.786139
F 1.078158 0.803582 5.786139
C -0.000000 -0.902965 6.983976
H 0.881829 -1.542853 6.952011
H -0.881829 -1.542853 6.952011
C 0.000000 -0.135729 8.305389
F -1.078158 0.675709 8.345924
F 1.078158 0.675709 8.345924
H -0.000000 0.502797 -9.258130
H -0.000000 -0.774255 9.188783
