34
{"chemistry":"vdcn","monomers":5,"defect_count":1,"axes":"x=transverse,y=central-pendant,z=chain"}
C 0.000000 -0.162396 -5.831198
H 0.881829 -0.801420 -5.877308
H -0.881829 -0.801420 -5.877308
C -0.000000 0.575427 -4.493139
F -1.078158 1.385770 -4.434668
F 1.078158 1.385770 -4.434668
C 0.000000 -0.346851 -3.274867
H 0.881829 -0.985876 -3.320977
H -0.881829 -0.985876 -3.320977
C -0.000000 0.390971 -1.936808
F -1.078158 1.201315 -1.878337
F 1.078158 1.201315 -1.878337
C 0.000000 -0.531307 -0.718536
H 0.881829 -1.170332 -0.764646
H -0.881829 -1.170332 -0.764646
C -0.000000 0.206516 0.619523
C -1.204154 1.047486 0.680204
N -2.154370 1.711110 0.728089
C 1.204154 1.047486 0.680204
N 2.154370 1.711110 0.728089
C 0.000000 -0.715763 1.837795
H 0.881829 -1.354787 1.791685
H -0.881829 -1.354787 1.791685
C 0.000000 0.022060 3.175854
F -1.078158 0.832403 3.234325
F 1.078158 0.832403 3.234325
C -0.000000 -0.900218 4.394126
H 0.881829 -1.539243 4.348016
H -0.881829 -1.539243 4.348016
C 0.000000 -0.162396 5.732185
F -1.078158 0.647948 5.790656
F 1.078158 0.647948 5.790656
H -0.000000 0.495512 -6.700254
H 0.000000 -0.820304 6.601240
