12
Lattice="8.5028995781 -0.0000000000 -0.0000000000 0.0000000000 4.5634837417 0.0000000000 0.0000000000 0.0000000000 2.5494118942" Properties=species:S:1:pos:R:3 frame=producer(x=long,y=polar,z=chain) units=A
C     -0.0000000000    -0.4785351993     0.0033913404
H      0.8818285239    -1.1192211243     0.0033913404
H     -0.8818285239    -1.1192211243     0.0033913404
C     -0.0000000000     0.3640256285     1.2780972875
F     -1.0781579386     1.1764759097     1.2780972875
F      1.0781579386     1.1764759097     1.2780972875
C     -4.2514497890     1.8032066716     2.5528032337
H     -3.3696212652     1.1625207466     2.5528032337
H     -5.1332783129     1.1625207466     2.5528032337
C     -4.2514497890     2.6457674993     3.8275091808
F     -5.3296077276     3.4582177806     3.8275091808
F     -3.1732918505     3.4582177806     3.8275091808
