24
Lattice="5.0063080693 0.0000000000 0.0000000000 0.0000000000 9.3440631002 0.0000000000 0.0000000000 0.0000000000 4.5199358957" Properties=species:S:1:pos:R:3 pbc="T T T" polyfind_cell="alpha TGTG' lowest antipolar, pack(gamma_free) under pvdf-dft-valence, Ewald" row="TG+TG-         E/mon=  -2.783  a= 5.01 b= 9.34 c= 4.52 gamma= 90.0  phi=( 90.0, 90.0) dz=0.13 anti  rho=2.012  |P|=0.000" params="[5.006308069260537, 9.344063100217591, 90.0, 90.0, 90.0, 0.1317223939862695, 1.0]"
C      0.2684127385    -0.6044413304     0.4847639369
H      1.3580607948    -0.6288636737     0.4717001466
H     -0.0946482636    -1.5106921976     0.0000000000
C     -0.2034814137    -0.6044413304     1.9380704803
F      0.2238974422    -1.7336110775     2.5420762715
F     -1.5522412982    -0.6554531389     1.9653572791
C      0.2684127385     0.6044413304     2.7447318848
H     -0.0946482636     1.5106921976     2.2599679479
H      1.3580607948     0.6288636737     2.7316680945
C     -0.2034814137     0.6044413304     4.1980384281
F     -1.5522412982     0.6554531389     4.2253252270
F      0.2238974422     1.7336110775     4.8020442193
C      2.2347412961     4.0675902197    -0.3530415429
H      1.1450932398     4.0431678764    -0.3399777526
H      2.5978022982     3.1613393525     0.1317223940
C      2.7066354484     4.0675902197    -1.8063480863
F      2.2792565924     2.9384204726    -2.4103538775
F      4.0553953329     4.0165784112    -1.8336348852
C      2.2347412961     5.2764728805    -2.6130094908
H      2.5978022982     6.1827237477    -2.1282455539
H      1.1450932398     5.3008952238    -2.5999457005
C      2.7066354484     5.2764728805    -4.0663160342
F      4.0553953329     5.3274846890    -4.0936028330
F      2.2792565924     6.4056426276    -4.6703218253
