12
Lattice="4.4868808468 0.0000000000 0.0000000000 0.0000000000 9.9704661966 0.0000000000 0.0000000000 0.0000000000 2.5629772556" Properties=species:S:1:pos:R:3 pbc="T T T" polyfind_cell="anti90" placement="relaxed" params="[4.486880846753281, 9.970466196556593, 90.0, 180.00011155645308, 0.00011155645302096673, 1.2814867838933275, 1.0]" energy_kcal_per_cell=-8.144803738754952
C      0.4778104814    -0.3194821352     0.6407433919
H     -0.0958071570    -1.2436125303     0.6407433919
H     -0.1813244499     0.5459205059     0.6407433919
C      1.3637327589    -0.2768418120     1.9222320198
F      2.1265507168     0.8887137363     1.9222320198
F      2.2219059945    -1.3844772848     1.9222320198
C      1.7656299419     5.3047152335     0.6407433919
H      2.4247648733     4.4393125923     0.6407433919
H      2.3392475803     6.2288456285     0.6407433919
C      0.8797076645     5.2620749102    -0.6407452359
F      0.0215344289     6.3697103830    -0.6407452359
F      0.1168897066     4.0965193620    -0.6407452359
