12
Lattice="4.5492609111 0.0000000000 0.0000000000 0.0000000000 8.4997138936 0.0000000000 0.0000000000 0.0000000000 2.5629772556" Properties=species:S:1:pos:R:3 pbc="T T T" polyfind_cell="polar90" placement="rigid" params="[4.549260911138021, 8.49971389364472, 90.0, 2.0627806560675914e-16, 360.0, 1.3311646916145737e-15, 1.0]" energy_kcal_per_cell=-6.926738
C      0.4733590082    -0.0000000000     0.0000000000
H      1.1140449332     0.8818285239     0.0000000000
H      1.1140449332    -0.8818285239     0.0000000000
C     -0.3588494373     0.0000000000     1.2814886278
F     -1.1712997186    -1.0781579386     1.2814886278
F     -1.1712997186     1.0781579386     1.2814886278
C      2.7479894637     4.2498569468     0.0000000000
H      3.3886753887     3.3680284230     0.0000000000
H      3.3886753887     5.1316854707     0.0000000000
C      1.9157810182     4.2498569468    -1.2814886278
F      1.1033307370     5.3280148854    -1.2814886278
F      1.1033307370     3.1716990083    -1.2814886278
