12
Lattice="4.4868808468 0.0000000000 0.0000000000 0.0000000000 9.9704661966 0.0000000000 0.0000000000 0.0000000000 2.5629772556" Properties=species:S:1:pos:R:3 pbc="T T T" polyfind_cell="anti90" placement="rigid" params="[4.486880846753281, 9.970466196556593, 90.0, 180.00011155645308, 0.00011155645302096673, 1.2814867838933275, 1.0]" energy_kcal_per_cell=-4.594348
C     -0.4733590082    -0.0000009216     0.0000000000
H     -1.1140432162    -0.8818306929     0.0000000000
H     -1.1140466501     0.8818263548     0.0000000000
C      0.3588494373     0.0000006987     1.2814886278
F      1.1712976194     1.0781602191     1.2814886278
F      1.1713018178    -1.0781556580     1.2814886278
C      2.7167994315     4.9852340199     1.2814867839
H      3.3574870735     4.1034067435     1.2814867839
H      3.3574836396     5.8670637912     1.2814867839
C      1.8845909860     4.9852323996    -0.0000018439
F      1.0721386056     6.0633887563    -0.0000018439
F      1.0721428040     3.9070728792    -0.0000018439
