12
Lattice="4.5592905562 0.0000000000 0.0000000000 4.5592880955 8.4880827720 0.0000000000 0.0000000000 0.0000000000 2.5629772556" Properties=species:S:1:pos:R:3 pbc="T T T" polyfind_cell="anti_free" placement="relaxed" params="[4.559290556240571, 9.635074316365419, 61.757979462468775, 180.0000524875203, 5.2487520235899865e-05, 1.1094473535422367e-06, 1.0]" energy_kcal_per_cell=-9.350631573018845
C     -0.5855180616    -0.0000002171     0.0000004529
H     -1.2042761128    -0.8940761031     0.0000004534
H     -1.2042767157     0.8940752552     0.0000004534
C      0.3020447411     0.0000000691     1.2814890812
F      1.1202398922     1.1345702613     1.2814890826
F      1.1202406198    -1.1345696475     1.2814890826
C      5.1448073875     4.2440416031     0.0000006566
H      5.7635660416     3.3499661308     0.0000006561
H      5.7635654387     5.1381174891     0.0000006561
C      4.2572445848     4.2440413169    -1.2814879717
F      3.4390487061     5.3786110335    -1.2814879732
F      3.4390494337     3.1094711247    -1.2814879732
