12
Lattice="4.5592905562 0.0000000000 0.0000000000 4.5592880955 8.4880827720 0.0000000000 0.0000000000 0.0000000000 2.5629772556" Properties=species:S:1:pos:R:3 pbc="T T T" polyfind_cell="anti_free" placement="rigid" params="[4.559290556240571, 9.635074316365419, 61.757979462468775, 180.0000524875203, 5.2487520235899865e-05, 1.1094473535422367e-06, 1.0]" energy_kcal_per_cell=-6.94196
C     -0.4733590082    -0.0000004336     0.0000000000
H     -1.1140441253    -0.8818295444     0.0000000000
H     -1.1140457410     0.8818275033     0.0000000000
C      0.3588494373     0.0000003287     1.2814886278
F      1.1712987309     1.0781590116     1.2814886278
F      1.1713007063    -1.0781568656     1.2814886278
C      5.0326483341     4.2440418196     0.0000011094
H      5.6733350669     3.3622138827     0.0000011094
H      5.6733334512     5.1258709304     0.0000011094
C      4.2004398886     4.2440410572    -1.2814875184
F      3.3879886196     5.3221982515    -1.2814875184
F      3.3879905950     3.1658823744    -1.2814875184
