12
Lattice="4.5492609111 0.0000000000 0.0000000000 0.0000000000 8.4997138936 0.0000000000 0.0000000000 0.0000000000 2.5629772556" Properties=species:S:1:pos:R:3 pbc="T T T" polyfind_cell="polar90" placement="relaxed" params="[4.549260911138021, 8.49971389364472, 90.0, 2.0627806560675914e-16, 360.0, 1.3311646916145737e-15, 1.0]" energy_kcal_per_cell=-9.33939505216643
C      0.5202884112    -0.0000000001     0.0000000000
H      1.1387232222     0.8942056952     0.0000000000
H      1.1387232222    -0.8942056951     0.0000000000
C     -0.3666255829     0.0000000000     1.2814886278
F     -1.1849859278    -1.1352224179     1.2814886278
F     -1.1849859278     1.1352224179     1.2814886278
C      2.7949188667     4.2498569468     0.0000000000
H      3.4133536778     3.3556512517     0.0000000000
H      3.4133536778     5.1440626420     0.0000000000
C      1.9080048727     4.2498569468    -1.2814886278
F      1.0896445277     5.3850793647    -1.2814886278
F      1.0896445277     3.1146345289    -1.2814886278
