12
Lattice="8.3582753719 0.0000000000 0.0000000000 0.0000000000 4.7314155341 0.0000000000 0.0000000000 0.0000000000 2.5801545869" Properties=species:S:1:pos:R:3 pbc="T T T" source="sarco materials/gpu_bundle/periodic_reference/beta_pvdf/born/scf.in" source_sha256="4ae57bd9fb505896a488cf0d0a35ab5e263e5a8a5808292db75242a5d8c0f9cf"
C      0.0000000019    -0.0518294572     0.0000000002
H      0.8868474482    -0.6983105771     0.0000000011
H     -0.8868474477    -0.6983105720     0.0000000011
C      0.0000000018     0.7766342827     1.2900772935
F      1.1119702304     1.6265845563     1.2900772935
F     -1.1119702290     1.6265845555     1.2900772935
C      4.1791376876     2.3138783099     0.0000000002
H      5.0659851341     1.6673971904     0.0000000010
H      3.2922902382     1.6673971947     0.0000000010
C      4.1791376875     3.1423420498     1.2900772935
F      5.2911079162     3.9922923233     1.2900772935
F      3.0671674568     3.9922923226     1.2900772935
