12
Lattice="4.7549872085 -0.0000000000 0.0011936140 0.0072371388 8.5308806429 0.0058691030 0.0006255667 0.0017385616 2.5807590370" Properties=species:S:1:pos:R:3 pbc="T T T" cell="polar" relaxation="relax_nosym (perturbed start, no symmetry, 4x2x8 mesh)" hamiltonian="PBE-D3(BJ) two-body, SSSP 1.3.0 PBE precision, 90/360 Ry"
C      0.4828972862    -0.0056549336    -0.0116771917
H      1.1302295768     0.8787205123    -0.0124354359
H      1.1299411891    -0.8901928302    -0.0108187219
C     -0.3445716033    -0.0040778928     1.2789164367
F     -1.1888690489    -1.1036570475     1.2800764627
F     -1.1859311531     1.0978364490     1.2783266168
C      2.8602908722     4.2618162778     0.0003351023
H      3.5078494745     3.3775823152     0.0008033221
H      3.5069872446     5.1466741254    -0.0003026323
C      2.0321678145     4.2607923715    -1.2898900135
F      1.1893805947     5.3616511885    -1.2906373795
F      1.1892348913     3.1602519239    -1.2892504395
