12
Lattice="4.7469253955 0.0000000000 -0.0014111620 -0.0039969639 8.5165899348 0.0014085860 -0.0007339676 0.0003792076 2.5807313000" Properties=species:S:1:pos:R:3 pbc="T T T" cell="anti_free" relaxation="relax_nosym (perturbed start, no symmetry, 4x2x8 mesh)" hamiltonian="PBE-D3(BJ) two-body, SSSP 1.3.0 PBE precision, 90/360 Ry"
C     -0.4236821480    -0.0030942503    -0.0103809432
H     -1.0706196407    -0.8878095924    -0.0107235820
H     -1.0714763124     0.8810172422    -0.0109452666
C      0.4037813743    -0.0027130742     1.2803386582
F      1.2462976380     1.0984469824     1.2805791703
F      1.2466805527    -1.1036097823     1.2809720600
C      5.1511275665     4.2535232228    -0.0049920250
H      5.7998462180     3.3701324455    -0.0050007680
H      5.7970100223     5.1390316220    -0.0048979580
C      4.3237011535     4.2520689187    -1.2955158071
F      3.4795328750     5.3520087490    -1.2957812345
F      3.4824772509     3.1499449861    -1.2955735124
