12
Lattice="4.7593682810 0.0000000000 0.0000000000 0.0000000000 8.5259069660 0.0000000000 0.0000000000 0.0000000000 2.5807710580" Properties=species:S:1:pos:R:3 pbc="T T T" cell="polar_dipole" relaxation="relax1" hamiltonian="PBE-D3(BJ) two-body, SSSP 1.3.0 PBE precision, 90/360 Ry"
C     -0.0464385044    -0.0000000019     0.0000000002
H     -0.6933401548    -0.8847106314     0.0000000011
H     -0.6933401496     0.8847106309     0.0000000011
C      0.7813628768    -0.0000000018     1.2903855292
F      1.6241797007    -1.1007062059     1.2903855292
F      1.6241796999     1.1007062045     1.2903855292
C      2.3332455450    -4.2629534846     0.0000000002
H      1.6863438766    -5.1476641047     0.0000000010
H      1.6863438809    -3.3782428617     0.0000000010
C      3.1610469221    -4.2629534845     1.2903855292
F      4.0038637461    -5.3636596919     1.2903855292
F      4.0038637454    -3.1622472752     1.2903855292
