12
Lattice="4.7429493240 -0.0000000000 0.0000000000 0.0000077722 8.5190479130 0.0000000000 0.0000000000 0.0000000000 2.5808259190" Properties=species:S:1:pos:R:3 pbc="T T T" cell="anti_free" relaxation="relax1" hamiltonian="PBE-D3(BJ) two-body, SSSP 1.3.0 PBE precision, 90/360 Ry"
C     -0.4054036497     0.0000034025     0.0000004561
H     -1.0529858020    -0.8842636457     0.0000004566
H     -1.0529820947     0.8842616705     0.0000004566
C      0.4224002525    -0.0000008774     1.2904134159
F      1.2650203801     1.1010716702     1.2904134173
F      1.2650184262    -1.1010708064     1.2904134173
C      5.1483568603     4.2595205537     0.0000006612
H      5.7959353053     3.3752622857     0.0000006607
H      5.7959390125     5.1437876019     0.0000006607
C      4.3205529581     4.2595248336    -1.2904122986
F      3.4779347843     5.3605947627    -1.2904123001
F      3.4779328306     3.1584522860    -1.2904123001
