24
Lattice="4.9442779100 0.0000000000 0.1022716020 0.0000000000 9.6359990920 0.0000000000 0.0884018700 0.0000000000 4.6587326740" Properties=species:S:1:pos:R:3 pbc="T T T" cell="alpha" relaxation="relax0" hamiltonian="PBE-D3(BJ) two-body, SSSP 1.3.0 PBE precision, 90/360 Ry"
C      0.0855457858    -0.5737408903     0.5850254081
H      1.1798665157    -0.6187643348     0.5382291113
H     -0.2950391336    -1.5013004687     0.1457474964
C     -0.3281487954    -0.5948122710     2.0543295079
F      0.1953033359    -1.7808916233     2.5640075503
F     -1.7026201229    -0.7484416196     2.1469645263
C      0.1297467208     0.5737408903     2.9143917450
H     -0.2508381986     1.5013004687     2.4751138332
H      1.2240674507     0.6187643348     2.8675954481
C     -0.2839478604     0.5948122710     4.3836958446
F     -1.6584191879     0.7484416196     4.4763308631
F      0.2395042709     1.7808916233     4.8933738871
C      2.3890585781     4.2441249222    -0.3981048045
H      1.2947555421     4.1986907216    -0.3512893761
H      2.7701177161     3.3165602842     0.0407665520
C      2.8027250508     4.2233761885    -1.8673260178
F      2.2794969242     3.0372017451    -2.3770485103
F      4.1772298598     4.0699503424    -1.9598829325
C      2.3448576431     5.3918741699    -2.7274711414
H      2.7259167811     6.3194388079    -2.2885997848
H      1.2505546071     5.4373083704    -2.6806557129
C      2.7585241158     5.4126229036    -4.1966923546
F      4.1330289248     5.5660487496    -4.2892492692
F      2.2352959892     6.5987973469    -4.7064148471
