12
Lattice="4.7523195148 0.0000000000 0.0000000000 0.0039004182 8.5148287049 0.0000000000 0.0000000000 0.0000000000 2.5806613490" Properties=species:S:1:pos:R:3 pbc="T T T" cell="anti90" relaxation="relax1" hamiltonian="PBE-D3(BJ) two-body, SSSP 1.3.0 PBE precision, 90/360 Ry"
C      0.7793159957     0.0014863731     0.6451644088
H      0.1306627149    -0.8820123350     0.6451644088
H      0.1332530572     0.8868620489     0.6451644088
C      1.6071706407     0.0003241306     1.9354950831
F      2.4512270365     1.1003170655     1.9354950831
F      2.4484490329    -1.1016574309     1.9354950831
C      1.5987939711     4.2559279791     0.6451644088
H      2.2448569097     3.3705523033     0.6451644088
H      2.2474472520     5.1394266872     0.6451644088
C      0.7709393263     4.2570902216    -0.6451662655
F     -0.0703390660     5.3590717830    -0.6451662655
F     -0.0731170695     3.1570972867    -0.6451662655
